NAME          brew_supply_demo_strategic
ROWS
 N  OBJ
 L  c_u_x642_
 L  c_u_x643_
 L  c_u_x644_
 L  c_u_x645_
 L  c_u_x646_
 L  c_u_x647_
 L  c_u_x648_
 L  c_u_x649_
 L  c_u_x650_
 L  c_u_x651_
 L  c_u_x652_
 L  c_u_x653_
 L  c_u_x654_
 L  c_u_x655_
 L  c_u_x656_
 L  c_u_x657_
 L  c_u_x658_
 L  c_u_x659_
 L  c_u_x660_
 L  c_u_x661_
 L  c_u_x662_
 L  c_u_x663_
 L  c_u_x664_
 L  c_u_x665_
 L  c_u_x666_
 L  c_u_x667_
 L  c_u_x668_
 L  c_u_x669_
 L  c_u_x670_
 L  c_u_x671_
 L  c_u_x672_
 L  c_u_x673_
 L  c_u_x674_
 L  c_u_x675_
 L  c_u_x676_
 L  c_u_x677_
 L  c_u_x678_
 L  c_u_x679_
 L  c_u_x680_
 L  c_u_x681_
 L  c_u_x682_
 L  c_u_x683_
 L  c_u_x684_
 L  c_u_x685_
 L  c_u_x686_
 L  c_u_x687_
 L  c_u_x688_
 L  c_u_x689_
 L  c_u_x690_
 L  c_u_x691_
 L  c_u_x692_
 L  c_u_x693_
 L  c_u_x694_
 L  c_u_x695_
 L  c_u_x696_
 L  c_u_x697_
 L  c_u_x698_
 L  c_u_x699_
 L  c_u_x700_
 L  c_u_x701_
 L  c_u_x702_
 L  c_u_x703_
 L  c_u_x704_
 L  c_u_x705_
 L  c_u_x706_
 L  c_u_x707_
 L  c_u_x708_
 L  c_u_x709_
 L  c_u_x710_
 L  c_u_x711_
 L  c_u_x712_
 L  c_u_x713_
 L  c_u_x714_
 L  c_u_x715_
 L  c_u_x716_
 L  c_u_x717_
 L  c_u_x718_
 L  c_u_x719_
 L  c_u_x720_
 L  c_u_x721_
 L  c_u_x722_
 L  c_u_x723_
 L  c_u_x724_
 L  c_u_x725_
 L  c_u_x726_
 L  c_u_x727_
 L  c_u_x728_
 L  c_u_x729_
 L  c_u_x730_
 L  c_u_x731_
 L  c_u_x732_
 L  c_u_x733_
 L  c_u_x734_
 L  c_u_x735_
 L  c_u_x736_
 L  c_u_x737_
 L  c_u_x738_
 L  c_u_x739_
 L  c_u_x740_
 L  c_u_x741_
 L  c_u_x742_
 L  c_u_x743_
 L  c_u_x744_
 L  c_u_x745_
 L  c_u_x746_
 L  c_u_x747_
 L  c_u_x748_
 L  c_u_x749_
 L  c_u_x750_
 L  c_u_x751_
 L  c_u_x752_
 L  c_u_x753_
 L  c_u_x754_
 L  c_u_x755_
 L  c_u_x756_
 L  c_u_x757_
 L  c_u_x758_
 L  c_u_x759_
 L  c_u_x760_
 L  c_u_x761_
 L  c_u_x762_
 L  c_u_x763_
 L  c_u_x764_
 L  c_u_x765_
 L  c_u_x766_
 L  c_u_x767_
 L  c_u_x768_
 L  c_u_x769_
 L  c_u_x770_
 L  c_u_x771_
 L  c_u_x772_
 L  c_u_x773_
 L  c_u_x774_
 L  c_u_x775_
 L  c_u_x776_
 L  c_u_x777_
 L  c_u_x778_
 L  c_u_x779_
 L  c_u_x780_
 L  c_u_x781_
 L  c_u_x782_
 L  c_u_x783_
 L  c_u_x784_
 L  c_u_x785_
 L  c_u_x786_
 L  c_u_x787_
 L  c_u_x788_
 L  c_u_x789_
 L  c_u_x790_
 L  c_u_x791_
 L  c_u_x792_
 L  c_u_x793_
 L  c_u_x794_
 L  c_u_x795_
 L  c_u_x796_
 L  c_u_x797_
 L  c_u_x798_
 L  c_u_x799_
 L  c_u_x800_
 L  c_u_x801_
 L  c_u_x802_
 L  c_u_x803_
 L  c_u_x804_
 L  c_u_x805_
 L  c_u_x806_
 L  c_u_x807_
 L  c_u_x808_
 L  c_u_x809_
 L  c_u_x810_
 L  c_u_x811_
 L  c_u_x812_
 L  c_u_x813_
 L  c_u_x814_
 L  c_u_x815_
 L  c_u_x816_
 L  c_u_x817_
 L  c_u_x818_
 L  c_u_x819_
 L  c_u_x820_
 L  c_u_x821_
 L  c_u_x822_
 L  c_u_x823_
 L  c_u_x824_
 L  c_u_x825_
 L  c_u_x826_
 L  c_u_x827_
 L  c_u_x828_
 L  c_u_x829_
 L  c_u_x830_
 L  c_u_x831_
 L  c_u_x832_
 L  c_u_x833_
 L  c_u_x834_
 L  c_u_x835_
 L  c_u_x836_
 L  c_u_x837_
 L  c_u_x838_
 L  c_u_x839_
 L  c_u_x840_
 L  c_u_x841_
 L  c_u_x842_
 L  c_u_x843_
 L  c_u_x844_
 L  c_u_x845_
 L  c_u_x846_
 L  c_u_x847_
 L  c_u_x848_
 L  c_u_x849_
 L  c_u_x850_
 L  c_u_x851_
 L  c_u_x852_
 L  c_u_x853_
 L  c_u_x854_
 L  c_u_x855_
 L  c_u_x856_
 L  c_u_x857_
 L  c_u_x858_
 L  c_u_x859_
 L  c_u_x860_
 L  c_u_x861_
 L  c_u_x862_
 L  c_u_x863_
 L  c_u_x864_
 L  c_u_x865_
 L  c_u_x866_
 L  c_u_x867_
 L  c_u_x868_
 L  c_u_x869_
 L  c_u_x870_
 L  c_u_x871_
 L  c_u_x872_
 L  c_u_x873_
 L  c_u_x874_
 L  c_u_x875_
 L  c_u_x876_
 L  c_u_x877_
 L  c_u_x878_
 L  c_u_x879_
 L  c_u_x880_
 L  c_u_x881_
 L  c_u_x882_
 L  c_u_x883_
 L  c_u_x884_
 L  c_u_x885_
 L  c_u_x886_
 L  c_u_x887_
 L  c_u_x888_
 L  c_u_x889_
 L  c_u_x890_
 L  c_u_x891_
 L  c_u_x892_
 L  c_u_x893_
 E  c_e_x894_
 E  c_e_x895_
 E  c_e_x896_
 E  c_e_x897_
 E  c_e_x898_
 E  c_e_x899_
 E  c_e_x900_
 E  c_e_x901_
 E  c_e_x902_
 E  c_e_x903_
 E  c_e_x904_
 E  c_e_x905_
 E  c_e_x906_
 E  c_e_x907_
 E  c_e_x908_
 E  c_e_x909_
 E  c_e_x910_
 E  c_e_x911_
 E  c_e_x912_
 E  c_e_x913_
 E  c_e_x914_
 E  c_e_x915_
 E  c_e_x916_
 E  c_e_x917_
 E  c_e_x918_
 E  c_e_x919_
 E  c_e_x920_
 E  c_e_x921_
 E  c_e_x922_
 E  c_e_x923_
 E  c_e_x924_
 E  c_e_x925_
 E  c_e_x926_
 E  c_e_x927_
 E  c_e_x928_
 E  c_e_x929_
 E  c_e_x930_
 E  c_e_x931_
 E  c_e_x932_
 E  c_e_x933_
 E  c_e_x934_
 E  c_e_x935_
 E  c_e_x936_
 E  c_e_x937_
 E  c_e_x938_
 E  c_e_x939_
 E  c_e_x940_
 E  c_e_x941_
 G  c_l_x942_
 G  c_l_x943_
 G  c_l_x944_
 G  c_l_x945_
 G  c_l_x946_
 G  c_l_x947_
 G  c_l_x948_
 G  c_l_x949_
 G  c_l_x950_
 G  c_l_x951_
 G  c_l_x952_
 G  c_l_x953_
 G  c_l_x954_
 G  c_l_x955_
 G  c_l_x956_
 G  c_l_x957_
 G  c_l_x958_
 G  c_l_x959_
 G  c_l_x960_
 G  c_l_x961_
 G  c_l_x962_
 G  c_l_x963_
 G  c_l_x964_
 G  c_l_x965_
 G  c_l_x966_
 G  c_l_x967_
 G  c_l_x968_
 G  c_l_x969_
 G  c_l_x970_
 G  c_l_x971_
 G  c_l_x972_
 G  c_l_x973_
 G  c_l_x974_
 G  c_l_x975_
 G  c_l_x976_
 G  c_l_x977_
 G  c_l_x978_
 G  c_l_x979_
 G  c_l_x980_
 G  c_l_x981_
 G  c_l_x982_
 G  c_l_x983_
 G  c_l_x984_
 G  c_l_x985_
 G  c_l_x986_
 G  c_l_x987_
 G  c_l_x988_
 G  c_l_x989_
 L  c_u_x990_
 L  c_u_x991_
 L  c_u_x992_
 L  c_u_x993_
 L  c_u_x994_
 L  c_u_x995_
 L  c_u_x996_
 L  c_u_x997_
 L  c_u_x998_
 L  c_u_x999_
 L  c_u_x1000_
 L  c_u_x1001_
 L  c_u_x1002_
 L  c_u_x1003_
 L  c_u_x1004_
 L  c_u_x1005_
 L  c_u_x1006_
 L  c_u_x1007_
 L  c_u_x1008_
 L  c_u_x1009_
 L  c_u_x1010_
 L  c_u_x1011_
 L  c_u_x1012_
 L  c_u_x1013_
 L  c_u_x1014_
 L  c_u_x1015_
 L  c_u_x1016_
 L  c_u_x1017_
 L  c_u_x1018_
 L  c_u_x1019_
 L  c_u_x1020_
 L  c_u_x1021_
 L  c_u_x1022_
 L  c_u_x1023_
 L  c_u_x1024_
 L  c_u_x1025_
 L  c_u_x1026_
 L  c_u_x1027_
 L  c_u_x1028_
 L  c_u_x1029_
 L  c_u_x1030_
 L  c_u_x1031_
 L  c_u_x1032_
 L  c_u_x1033_
 L  c_u_x1034_
 L  c_u_x1035_
 L  c_u_x1036_
 L  c_u_x1037_
COLUMNS
    x1 c_u_x642_ 1
    x1 c_u_x654_ -2000
    x1 c_u_x655_ -4000
    x1 c_u_x656_ -6000
    x1 c_u_x657_ -8000
    x1 c_u_x658_ -10000
    x1 c_u_x659_ -12000
    x1 c_u_x660_ -14000
    x1 c_u_x661_ -16000
    x1 c_u_x662_ -18000
    x1 c_u_x663_ -20000
    x1 c_u_x664_ -22000
    x1 c_u_x665_ -24000
    x1 c_l_x942_ 2000
    x1 c_l_x943_ 4000
    x1 c_l_x944_ 6000
    x1 c_l_x945_ 8000
    x1 c_l_x946_ 10000
    x1 c_l_x947_ 12000
    x1 c_l_x948_ 14000
    x1 c_l_x949_ 16000
    x1 c_l_x950_ 18000
    x1 c_l_x951_ 20000
    x1 c_l_x952_ 22000
    x1 c_l_x953_ 24000
    x1 c_u_x990_ 1.2746972594008923
    x1 c_u_x991_ 2.5493945188017846
    x1 c_u_x992_ 3.8240917782026767
    x1 c_u_x993_ 5.0987890376035692
    x1 c_u_x994_ 6.3734862970044617
    x1 c_u_x995_ 7.6481835564053533
    x1 c_u_x996_ 8.9228808158062467
    x1 c_u_x997_ 10.197578075207138
    x1 c_u_x998_ 11.47227533460803
    x1 c_u_x999_ 12.746972594008923
    x1 c_u_x1000_ 14.021669853409815
    x1 c_u_x1001_ 15.296367112810707
    x1 OBJ 3000
    x2 c_u_x642_ 1
    x2 c_u_x666_ -2000
    x2 c_u_x667_ -4000
    x2 c_u_x668_ -6000
    x2 c_u_x669_ -8000
    x2 c_u_x670_ -10000
    x2 c_u_x671_ -12000
    x2 c_u_x672_ -14000
    x2 c_u_x673_ -16000
    x2 c_u_x674_ -18000
    x2 c_u_x675_ -20000
    x2 c_u_x676_ -22000
    x2 c_u_x677_ -24000
    x2 c_l_x954_ 2000
    x2 c_l_x955_ 4000
    x2 c_l_x956_ 6000
    x2 c_l_x957_ 8000
    x2 c_l_x958_ 10000
    x2 c_l_x959_ 12000
    x2 c_l_x960_ 14000
    x2 c_l_x961_ 16000
    x2 c_l_x962_ 18000
    x2 c_l_x963_ 20000
    x2 c_l_x964_ 22000
    x2 c_l_x965_ 24000
    x2 c_u_x1002_ 3.5242290748898677
    x2 c_u_x1003_ 7.0484581497797354
    x2 c_u_x1004_ 10.572687224669604
    x2 c_u_x1005_ 14.096916299559471
    x2 c_u_x1006_ 17.621145374449338
    x2 c_u_x1007_ 21.145374449339208
    x2 c_u_x1008_ 24.669603524229075
    x2 c_u_x1009_ 28.193832599118942
    x2 c_u_x1010_ 31.718061674008812
    x2 c_u_x1011_ 35.242290748898675
    x2 c_u_x1012_ 38.766519823788549
    x2 c_u_x1013_ 42.290748898678416
    x3 c_u_x642_ 1
    x3 c_u_x678_ -2000
    x3 c_u_x679_ -4000
    x3 c_u_x680_ -6000
    x3 c_u_x681_ -8000
    x3 c_u_x682_ -10000
    x3 c_u_x683_ -12000
    x3 c_u_x684_ -14000
    x3 c_u_x685_ -16000
    x3 c_u_x686_ -18000
    x3 c_u_x687_ -20000
    x3 c_u_x688_ -22000
    x3 c_u_x689_ -24000
    x3 c_l_x966_ 2000
    x3 c_l_x967_ 4000
    x3 c_l_x968_ 6000
    x3 c_l_x969_ 8000
    x3 c_l_x970_ 10000
    x3 c_l_x971_ 12000
    x3 c_l_x972_ 14000
    x3 c_l_x973_ 16000
    x3 c_l_x974_ 18000
    x3 c_l_x975_ 20000
    x3 c_l_x976_ 22000
    x3 c_l_x977_ 24000
    x3 c_u_x1014_ 1.0256410256410255
    x3 c_u_x1015_ 2.0512820512820511
    x3 c_u_x1016_ 3.0769230769230771
    x3 c_u_x1017_ 4.1025641025641022
    x3 c_u_x1018_ 5.1282051282051286
    x3 c_u_x1019_ 6.1538461538461542
    x3 c_u_x1020_ 7.1794871794871797
    x3 c_u_x1021_ 8.2051282051282044
    x3 c_u_x1022_ 9.2307692307692299
    x3 c_u_x1023_ 10.256410256410257
    x3 c_u_x1024_ 11.282051282051283
    x3 c_u_x1025_ 12.307692307692308
    x3 OBJ 3000
    x4 c_u_x642_ 1
    x4 c_u_x690_ -2000
    x4 c_u_x691_ -4000
    x4 c_u_x692_ -6000
    x4 c_u_x693_ -8000
    x4 c_u_x694_ -10000
    x4 c_u_x695_ -12000
    x4 c_u_x696_ -14000
    x4 c_u_x697_ -16000
    x4 c_u_x698_ -18000
    x4 c_u_x699_ -20000
    x4 c_u_x700_ -22000
    x4 c_u_x701_ -24000
    x4 c_l_x978_ 2000
    x4 c_l_x979_ 4000
    x4 c_l_x980_ 6000
    x4 c_l_x981_ 8000
    x4 c_l_x982_ 10000
    x4 c_l_x983_ 12000
    x4 c_l_x984_ 14000
    x4 c_l_x985_ 16000
    x4 c_l_x986_ 18000
    x4 c_l_x987_ 20000
    x4 c_l_x988_ 22000
    x4 c_l_x989_ 24000
    x4 c_u_x1026_ 1.4164305949008498
    x4 c_u_x1027_ 2.8328611898016995
    x4 c_u_x1028_ 4.2492917847025495
    x4 c_u_x1029_ 5.6657223796033991
    x4 c_u_x1030_ 7.0821529745042495
    x4 c_u_x1031_ 8.4985835694050991
    x4 c_u_x1032_ 9.9150141643059495
    x4 c_u_x1033_ 11.331444759206798
    x4 c_u_x1034_ 12.747875354107649
    x4 c_u_x1035_ 14.164305949008499
    x4 c_u_x1036_ 15.580736543909348
    x4 c_u_x1037_ 16.997167138810198
    x4 OBJ 1530
    x5 c_u_x643_ 1
    x5 c_u_x702_ -1000
    x5 c_u_x703_ -2000
    x5 c_u_x704_ -3000
    x5 c_u_x705_ -4000
    x5 c_u_x706_ -5000
    x5 c_u_x707_ -6000
    x5 c_u_x708_ -7000
    x5 c_u_x709_ -8000
    x5 c_u_x710_ -9000
    x5 c_u_x711_ -10000
    x5 c_u_x712_ -11000
    x5 c_u_x713_ -12000
    x5 c_l_x942_ 1000
    x5 c_l_x943_ 2000
    x5 c_l_x944_ 3000
    x5 c_l_x945_ 4000
    x5 c_l_x946_ 5000
    x5 c_l_x947_ 6000
    x5 c_l_x948_ 7000
    x5 c_l_x949_ 8000
    x5 c_l_x950_ 9000
    x5 c_l_x951_ 10000
    x5 c_l_x952_ 11000
    x5 c_l_x953_ 12000
    x5 c_u_x990_ 2.785515320334262
    x5 c_u_x991_ 5.5710306406685239
    x5 c_u_x992_ 8.3565459610027855
    x5 c_u_x993_ 11.142061281337048
    x5 c_u_x994_ 13.927576601671309
    x5 c_u_x995_ 16.713091922005571
    x5 c_u_x996_ 19.498607242339833
    x5 c_u_x997_ 22.284122562674096
    x5 c_u_x998_ 25.069637883008358
    x5 c_u_x999_ 27.855153203342617
    x5 c_u_x1000_ 30.640668523676879
    x5 c_u_x1001_ 33.426183844011142
    x6 c_u_x643_ 1
    x6 c_u_x714_ -1000
    x6 c_u_x715_ -2000
    x6 c_u_x716_ -3000
    x6 c_u_x717_ -4000
    x6 c_u_x718_ -5000
    x6 c_u_x719_ -6000
    x6 c_u_x720_ -7000
    x6 c_u_x721_ -8000
    x6 c_u_x722_ -9000
    x6 c_u_x723_ -10000
    x6 c_u_x724_ -11000
    x6 c_u_x725_ -12000
    x6 c_l_x954_ 1000
    x6 c_l_x955_ 2000
    x6 c_l_x956_ 3000
    x6 c_l_x957_ 4000
    x6 c_l_x958_ 5000
    x6 c_l_x959_ 6000
    x6 c_l_x960_ 7000
    x6 c_l_x961_ 8000
    x6 c_l_x962_ 9000
    x6 c_l_x963_ 10000
    x6 c_l_x964_ 11000
    x6 c_l_x965_ 12000
    x6 c_u_x1002_ 0.69637883008356549
    x6 c_u_x1003_ 1.392757660167131
    x6 c_u_x1004_ 2.0891364902506964
    x6 c_u_x1005_ 2.785515320334262
    x6 c_u_x1006_ 3.4818941504178271
    x6 c_u_x1007_ 4.1782729805013927
    x6 c_u_x1008_ 4.8746518105849583
    x6 c_u_x1009_ 5.5710306406685239
    x6 c_u_x1010_ 6.2674094707520895
    x6 c_u_x1011_ 6.9637883008356543
    x6 c_u_x1012_ 7.6601671309192199
    x6 c_u_x1013_ 8.3565459610027855
    x6 OBJ 1358
    x7 c_u_x643_ 1
    x7 c_u_x726_ -1000
    x7 c_u_x727_ -2000
    x7 c_u_x728_ -3000
    x7 c_u_x729_ -4000
    x7 c_u_x730_ -5000
    x7 c_u_x731_ -6000
    x7 c_u_x732_ -7000
    x7 c_u_x733_ -8000
    x7 c_u_x734_ -9000
    x7 c_u_x735_ -10000
    x7 c_u_x736_ -11000
    x7 c_u_x737_ -12000
    x7 c_l_x966_ 1000
    x7 c_l_x967_ 2000
    x7 c_l_x968_ 3000
    x7 c_l_x969_ 4000
    x7 c_l_x970_ 5000
    x7 c_l_x971_ 6000
    x7 c_l_x972_ 7000
    x7 c_l_x973_ 8000
    x7 c_l_x974_ 9000
    x7 c_l_x975_ 10000
    x7 c_l_x976_ 11000
    x7 c_l_x977_ 12000
    x7 c_u_x1014_ 0.65231572080887146
    x7 c_u_x1015_ 1.3046314416177429
    x7 c_u_x1016_ 1.9569471624266144
    x7 c_u_x1017_ 2.6092628832354858
    x7 c_u_x1018_ 3.2615786040443573
    x7 c_u_x1019_ 3.9138943248532287
    x7 c_u_x1020_ 4.5662100456621006
    x7 c_u_x1021_ 5.2185257664709717
    x7 c_u_x1022_ 5.8708414872798436
    x7 c_u_x1023_ 6.5231572080887146
    x7 c_u_x1024_ 7.1754729288975865
    x7 c_u_x1025_ 7.8277886497064575
    x7 OBJ 120
    x8 c_u_x643_ 1
    x8 c_u_x738_ -1000
    x8 c_u_x739_ -2000
    x8 c_u_x740_ -3000
    x8 c_u_x741_ -4000
    x8 c_u_x742_ -5000
    x8 c_u_x743_ -6000
    x8 c_u_x744_ -7000
    x8 c_u_x745_ -8000
    x8 c_u_x746_ -9000
    x8 c_u_x747_ -10000
    x8 c_u_x748_ -11000
    x8 c_u_x749_ -12000
    x8 c_l_x978_ 1000
    x8 c_l_x979_ 2000
    x8 c_l_x980_ 3000
    x8 c_l_x981_ 4000
    x8 c_l_x982_ 5000
    x8 c_l_x983_ 6000
    x8 c_l_x984_ 7000
    x8 c_l_x985_ 8000
    x8 c_l_x986_ 9000
    x8 c_l_x987_ 10000
    x8 c_l_x988_ 11000
    x8 c_l_x989_ 12000
    x8 c_u_x1026_ 1.4214641080312722
    x8 c_u_x1027_ 2.8429282160625444
    x8 c_u_x1028_ 4.2643923240938166
    x8 c_u_x1029_ 5.6858564321250888
    x8 c_u_x1030_ 7.1073205401563611
    x8 c_u_x1031_ 8.5287846481876333
    x8 c_u_x1032_ 9.9502487562189046
    x8 c_u_x1033_ 11.371712864250178
    x8 c_u_x1034_ 12.793176972281449
    x8 c_u_x1035_ 14.214641080312722
    x8 c_u_x1036_ 15.636105188343993
    x8 c_u_x1037_ 17.057569296375267
    x8 OBJ 388
    x9 c_u_x644_ 1
    x9 c_u_x750_ -3000
    x9 c_u_x751_ -6000
    x9 c_u_x752_ -9000
    x9 c_u_x753_ -12000
    x9 c_u_x754_ -15000
    x9 c_u_x755_ -18000
    x9 c_u_x756_ -21000
    x9 c_u_x757_ -24000
    x9 c_u_x758_ -27000
    x9 c_u_x759_ -30000
    x9 c_u_x760_ -33000
    x9 c_u_x761_ -36000
    x9 c_l_x942_ 3000
    x9 c_l_x943_ 6000
    x9 c_l_x944_ 9000
    x9 c_l_x945_ 12000
    x9 c_l_x946_ 15000
    x9 c_l_x947_ 18000
    x9 c_l_x948_ 21000
    x9 c_l_x949_ 24000
    x9 c_l_x950_ 27000
    x9 c_l_x951_ 30000
    x9 c_l_x952_ 33000
    x9 c_l_x953_ 36000
    x9 c_u_x990_ 5.02092050209205
    x9 c_u_x991_ 10.0418410041841
    x9 c_u_x992_ 15.06276150627615
    x9 c_u_x993_ 20.0836820083682
    x9 c_u_x994_ 25.10460251046025
    x9 c_u_x995_ 30.1255230125523
    x9 c_u_x996_ 35.146443514644353
    x9 c_u_x997_ 40.1673640167364
    x9 c_u_x998_ 45.188284518828453
    x9 c_u_x999_ 50.2092050209205
    x9 c_u_x1000_ 55.230125523012553
    x9 c_u_x1001_ 60.2510460251046
    x9 OBJ 1350
    x10 c_u_x644_ 1
    x10 c_u_x762_ -3000
    x10 c_u_x763_ -6000
    x10 c_u_x764_ -9000
    x10 c_u_x765_ -12000
    x10 c_u_x766_ -15000
    x10 c_u_x767_ -18000
    x10 c_u_x768_ -21000
    x10 c_u_x769_ -24000
    x10 c_u_x770_ -27000
    x10 c_u_x771_ -30000
    x10 c_u_x772_ -33000
    x10 c_u_x773_ -36000
    x10 c_l_x954_ 3000
    x10 c_l_x955_ 6000
    x10 c_l_x956_ 9000
    x10 c_l_x957_ 12000
    x10 c_l_x958_ 15000
    x10 c_l_x959_ 18000
    x10 c_l_x960_ 21000
    x10 c_l_x961_ 24000
    x10 c_l_x962_ 27000
    x10 c_l_x963_ 30000
    x10 c_l_x964_ 33000
    x10 c_l_x965_ 36000
    x10 c_u_x1002_ 6.8807339449541285
    x10 c_u_x1003_ 13.761467889908257
    x10 c_u_x1004_ 20.642201834862384
    x10 c_u_x1005_ 27.522935779816514
    x10 c_u_x1006_ 34.403669724770644
    x10 c_u_x1007_ 41.284403669724767
    x10 c_u_x1008_ 48.165137614678898
    x10 c_u_x1009_ 55.045871559633028
    x10 c_u_x1010_ 61.926605504587158
    x10 c_u_x1011_ 68.807339449541288
    x10 c_u_x1012_ 75.688073394495419
    x10 c_u_x1013_ 82.568807339449535
    x10 OBJ 1800
    x11 c_u_x644_ 1
    x11 c_u_x774_ -3000
    x11 c_u_x775_ -6000
    x11 c_u_x776_ -9000
    x11 c_u_x777_ -12000
    x11 c_u_x778_ -15000
    x11 c_u_x779_ -18000
    x11 c_u_x780_ -21000
    x11 c_u_x781_ -24000
    x11 c_u_x782_ -27000
    x11 c_u_x783_ -30000
    x11 c_u_x784_ -33000
    x11 c_u_x785_ -36000
    x11 c_l_x966_ 3000
    x11 c_l_x967_ 6000
    x11 c_l_x968_ 9000
    x11 c_l_x969_ 12000
    x11 c_l_x970_ 15000
    x11 c_l_x971_ 18000
    x11 c_l_x972_ 21000
    x11 c_l_x973_ 24000
    x11 c_l_x974_ 27000
    x11 c_l_x975_ 30000
    x11 c_l_x976_ 33000
    x11 c_l_x977_ 36000
    x11 c_u_x1014_ 1.8105009052504526
    x11 c_u_x1015_ 3.6210018105009052
    x11 c_u_x1016_ 5.4315027157513578
    x11 c_u_x1017_ 7.2420036210018104
    x11 c_u_x1018_ 9.0525045262522639
    x11 c_u_x1019_ 10.863005431502716
    x11 c_u_x1020_ 12.673506336753169
    x11 c_u_x1021_ 14.484007242003621
    x11 c_u_x1022_ 16.294508147254074
    x11 c_u_x1023_ 18.105009052504528
    x11 c_u_x1024_ 19.915509957754978
    x11 c_u_x1025_ 21.726010863005431
    x11 OBJ 144
    x12 c_u_x644_ 1
    x12 c_u_x786_ -3000
    x12 c_u_x787_ -6000
    x12 c_u_x788_ -9000
    x12 c_u_x789_ -12000
    x12 c_u_x790_ -15000
    x12 c_u_x791_ -18000
    x12 c_u_x792_ -21000
    x12 c_u_x793_ -24000
    x12 c_u_x794_ -27000
    x12 c_u_x795_ -30000
    x12 c_u_x796_ -33000
    x12 c_u_x797_ -36000
    x12 c_l_x978_ 3000
    x12 c_l_x979_ 6000
    x12 c_l_x980_ 9000
    x12 c_l_x981_ 12000
    x12 c_l_x982_ 15000
    x12 c_l_x983_ 18000
    x12 c_l_x984_ 21000
    x12 c_l_x985_ 24000
    x12 c_l_x986_ 27000
    x12 c_l_x987_ 30000
    x12 c_l_x988_ 33000
    x12 c_l_x989_ 36000
    x12 c_u_x1026_ 3.2379924446842958
    x12 c_u_x1027_ 6.4759848893685916
    x12 c_u_x1028_ 9.7139773340528865
    x12 c_u_x1029_ 12.951969778737183
    x12 c_u_x1030_ 16.189962223421478
    x12 c_u_x1031_ 19.427954668105773
    x12 c_u_x1032_ 22.665947112790072
    x12 c_u_x1033_ 25.903939557474366
    x12 c_u_x1034_ 29.141932002158661
    x12 c_u_x1035_ 32.379924446842956
    x12 c_u_x1036_ 35.617916891527251
    x12 c_u_x1037_ 38.855909336211546
    x12 OBJ 2160
    x13 c_u_x645_ 1
    x13 c_u_x798_ -4000
    x13 c_u_x799_ -8000
    x13 c_u_x800_ -12000
    x13 c_u_x801_ -16000
    x13 c_u_x802_ -20000
    x13 c_u_x803_ -24000
    x13 c_u_x804_ -28000
    x13 c_u_x805_ -32000
    x13 c_u_x806_ -36000
    x13 c_u_x807_ -40000
    x13 c_u_x808_ -44000
    x13 c_u_x809_ -48000
    x13 c_l_x942_ 4000
    x13 c_l_x943_ 8000
    x13 c_l_x944_ 12000
    x13 c_l_x945_ 16000
    x13 c_l_x946_ 20000
    x13 c_l_x947_ 24000
    x13 c_l_x948_ 28000
    x13 c_l_x949_ 32000
    x13 c_l_x950_ 36000
    x13 c_l_x951_ 40000
    x13 c_l_x952_ 44000
    x13 c_l_x953_ 48000
    x13 c_u_x990_ 4.9535603715170282
    x13 c_u_x991_ 9.9071207430340564
    x13 c_u_x992_ 14.860681114551083
    x13 c_u_x993_ 19.814241486068113
    x13 c_u_x994_ 24.767801857585141
    x13 c_u_x995_ 29.721362229102166
    x13 c_u_x996_ 34.674922600619198
    x13 c_u_x997_ 39.628482972136226
    x13 c_u_x998_ 44.582043343653254
    x13 c_u_x999_ 49.535603715170282
    x13 c_u_x1000_ 54.489164086687303
    x13 c_u_x1001_ 59.442724458204331
    x13 OBJ 3240
    x14 c_u_x645_ 1
    x14 c_u_x810_ -4000
    x14 c_u_x811_ -8000
    x14 c_u_x812_ -12000
    x14 c_u_x813_ -16000
    x14 c_u_x814_ -20000
    x14 c_u_x815_ -24000
    x14 c_u_x816_ -28000
    x14 c_u_x817_ -32000
    x14 c_u_x818_ -36000
    x14 c_u_x819_ -40000
    x14 c_u_x820_ -44000
    x14 c_u_x821_ -48000
    x14 c_l_x954_ 4000
    x14 c_l_x955_ 8000
    x14 c_l_x956_ 12000
    x14 c_l_x957_ 16000
    x14 c_l_x958_ 20000
    x14 c_l_x959_ 24000
    x14 c_l_x960_ 28000
    x14 c_l_x961_ 32000
    x14 c_l_x962_ 36000
    x14 c_l_x963_ 40000
    x14 c_l_x964_ 44000
    x14 c_l_x965_ 48000
    x14 c_u_x1002_ 4.4843049327354256
    x14 c_u_x1003_ 8.9686098654708513
    x14 c_u_x1004_ 13.452914798206278
    x14 c_u_x1005_ 17.937219730941703
    x14 c_u_x1006_ 22.421524663677129
    x14 c_u_x1007_ 26.905829596412556
    x14 c_u_x1008_ 31.390134529147982
    x14 c_u_x1009_ 35.874439461883405
    x14 c_u_x1010_ 40.358744394618832
    x14 c_u_x1011_ 44.843049327354258
    x14 c_u_x1012_ 49.327354260089685
    x14 c_u_x1013_ 53.811659192825111
    x14 OBJ 5100
    x15 c_u_x645_ 1
    x15 c_u_x822_ -4000
    x15 c_u_x823_ -8000
    x15 c_u_x824_ -12000
    x15 c_u_x825_ -16000
    x15 c_u_x826_ -20000
    x15 c_u_x827_ -24000
    x15 c_u_x828_ -28000
    x15 c_u_x829_ -32000
    x15 c_u_x830_ -36000
    x15 c_u_x831_ -40000
    x15 c_u_x832_ -44000
    x15 c_u_x833_ -48000
    x15 c_l_x966_ 4000
    x15 c_l_x967_ 8000
    x15 c_l_x968_ 12000
    x15 c_l_x969_ 16000
    x15 c_l_x970_ 20000
    x15 c_l_x971_ 24000
    x15 c_l_x972_ 28000
    x15 c_l_x973_ 32000
    x15 c_l_x974_ 36000
    x15 c_l_x975_ 40000
    x15 c_l_x976_ 44000
    x15 c_l_x977_ 48000
    x15 c_u_x1014_ 7.6481835564053533
    x15 c_u_x1015_ 15.296367112810707
    x15 c_u_x1016_ 22.94455066921606
    x15 c_u_x1017_ 30.592734225621413
    x15 c_u_x1018_ 38.24091778202677
    x15 c_u_x1019_ 45.88910133843212
    x15 c_u_x1020_ 53.537284894837477
    x15 c_u_x1021_ 61.185468451242826
    x15 c_u_x1022_ 68.833652007648183
    x15 c_u_x1023_ 76.48183556405354
    x15 c_u_x1024_ 84.130019120458897
    x15 c_u_x1025_ 91.77820267686424
    x15 OBJ 1920
    x16 c_u_x645_ 1
    x16 c_u_x834_ -4000
    x16 c_u_x835_ -8000
    x16 c_u_x836_ -12000
    x16 c_u_x837_ -16000
    x16 c_u_x838_ -20000
    x16 c_u_x839_ -24000
    x16 c_u_x840_ -28000
    x16 c_u_x841_ -32000
    x16 c_u_x842_ -36000
    x16 c_u_x843_ -40000
    x16 c_u_x844_ -44000
    x16 c_u_x845_ -48000
    x16 c_l_x978_ 4000
    x16 c_l_x979_ 8000
    x16 c_l_x980_ 12000
    x16 c_l_x981_ 16000
    x16 c_l_x982_ 20000
    x16 c_l_x983_ 24000
    x16 c_l_x984_ 28000
    x16 c_l_x985_ 32000
    x16 c_l_x986_ 36000
    x16 c_l_x987_ 40000
    x16 c_l_x988_ 44000
    x16 c_l_x989_ 48000
    x16 c_u_x1026_ 3.6730945821854912
    x16 c_u_x1027_ 7.3461891643709825
    x16 c_u_x1028_ 11.019283746556473
    x16 c_u_x1029_ 14.692378328741965
    x16 c_u_x1030_ 18.365472910927455
    x16 c_u_x1031_ 22.038567493112946
    x16 c_u_x1032_ 25.711662075298438
    x16 c_u_x1033_ 29.38475665748393
    x16 c_u_x1034_ 33.057851239669418
    x16 c_u_x1035_ 36.73094582185491
    x16 c_u_x1036_ 40.404040404040401
    x16 c_u_x1037_ 44.077134986225893
    x17 c_u_x646_ 1
    x17 c_u_x846_ 1
    x17 c_e_x894_ 1
    x17 c_u_x990_ -0.00071428571428571429
    x17 c_u_x991_ -0.00071428571428571429
    x17 c_u_x992_ -0.00071428571428571429
    x17 c_u_x993_ -0.00071428571428571429
    x17 c_u_x994_ -0.00071428571428571429
    x17 c_u_x995_ -0.00071428571428571429
    x17 c_u_x996_ -0.00071428571428571429
    x17 c_u_x997_ -0.00071428571428571429
    x17 c_u_x998_ -0.00071428571428571429
    x17 c_u_x999_ -0.00071428571428571429
    x17 c_u_x1000_ -0.00071428571428571429
    x17 c_u_x1001_ -0.00071428571428571429
    x18 c_u_x646_ 1
    x18 c_u_x847_ 1
    x18 c_e_x895_ 1
    x18 c_u_x991_ -0.00071428571428571429
    x18 c_u_x992_ -0.00071428571428571429
    x18 c_u_x993_ -0.00071428571428571429
    x18 c_u_x994_ -0.00071428571428571429
    x18 c_u_x995_ -0.00071428571428571429
    x18 c_u_x996_ -0.00071428571428571429
    x18 c_u_x997_ -0.00071428571428571429
    x18 c_u_x998_ -0.00071428571428571429
    x18 c_u_x999_ -0.00071428571428571429
    x18 c_u_x1000_ -0.00071428571428571429
    x18 c_u_x1001_ -0.00071428571428571429
    x19 c_u_x646_ 1
    x19 c_u_x848_ 1
    x19 c_e_x896_ 1
    x19 c_u_x992_ -0.00071428571428571429
    x19 c_u_x993_ -0.00071428571428571429
    x19 c_u_x994_ -0.00071428571428571429
    x19 c_u_x995_ -0.00071428571428571429
    x19 c_u_x996_ -0.00071428571428571429
    x19 c_u_x997_ -0.00071428571428571429
    x19 c_u_x998_ -0.00071428571428571429
    x19 c_u_x999_ -0.00071428571428571429
    x19 c_u_x1000_ -0.00071428571428571429
    x19 c_u_x1001_ -0.00071428571428571429
    x20 c_u_x646_ 1
    x20 c_u_x849_ 1
    x20 c_e_x897_ 1
    x20 c_u_x993_ -0.00071428571428571429
    x20 c_u_x994_ -0.00071428571428571429
    x20 c_u_x995_ -0.00071428571428571429
    x20 c_u_x996_ -0.00071428571428571429
    x20 c_u_x997_ -0.00071428571428571429
    x20 c_u_x998_ -0.00071428571428571429
    x20 c_u_x999_ -0.00071428571428571429
    x20 c_u_x1000_ -0.00071428571428571429
    x20 c_u_x1001_ -0.00071428571428571429
    x21 c_u_x646_ 1
    x21 c_u_x850_ 1
    x21 c_e_x898_ 1
    x21 c_u_x994_ -0.00071428571428571429
    x21 c_u_x995_ -0.00071428571428571429
    x21 c_u_x996_ -0.00071428571428571429
    x21 c_u_x997_ -0.00071428571428571429
    x21 c_u_x998_ -0.00071428571428571429
    x21 c_u_x999_ -0.00071428571428571429
    x21 c_u_x1000_ -0.00071428571428571429
    x21 c_u_x1001_ -0.00071428571428571429
    x22 c_u_x646_ 1
    x22 c_u_x851_ 1
    x22 c_e_x899_ 1
    x22 c_u_x995_ -0.00071428571428571429
    x22 c_u_x996_ -0.00071428571428571429
    x22 c_u_x997_ -0.00071428571428571429
    x22 c_u_x998_ -0.00071428571428571429
    x22 c_u_x999_ -0.00071428571428571429
    x22 c_u_x1000_ -0.00071428571428571429
    x22 c_u_x1001_ -0.00071428571428571429
    x23 c_u_x646_ 1
    x23 c_u_x852_ 1
    x23 c_e_x900_ 1
    x23 c_u_x996_ -0.00071428571428571429
    x23 c_u_x997_ -0.00071428571428571429
    x23 c_u_x998_ -0.00071428571428571429
    x23 c_u_x999_ -0.00071428571428571429
    x23 c_u_x1000_ -0.00071428571428571429
    x23 c_u_x1001_ -0.00071428571428571429
    x24 c_u_x646_ 1
    x24 c_u_x853_ 1
    x24 c_e_x901_ 1
    x24 c_u_x997_ -0.00071428571428571429
    x24 c_u_x998_ -0.00071428571428571429
    x24 c_u_x999_ -0.00071428571428571429
    x24 c_u_x1000_ -0.00071428571428571429
    x24 c_u_x1001_ -0.00071428571428571429
    x25 c_u_x646_ 1
    x25 c_u_x854_ 1
    x25 c_e_x902_ 1
    x25 c_u_x998_ -0.00071428571428571429
    x25 c_u_x999_ -0.00071428571428571429
    x25 c_u_x1000_ -0.00071428571428571429
    x25 c_u_x1001_ -0.00071428571428571429
    x26 c_u_x646_ 1
    x26 c_u_x855_ 1
    x26 c_e_x903_ 1
    x26 c_u_x999_ -0.00071428571428571429
    x26 c_u_x1000_ -0.00071428571428571429
    x26 c_u_x1001_ -0.00071428571428571429
    x27 c_u_x646_ 1
    x27 c_u_x856_ 1
    x27 c_e_x904_ 1
    x27 c_u_x1000_ -0.00071428571428571429
    x27 c_u_x1001_ -0.00071428571428571429
    x28 c_u_x646_ 1
    x28 c_u_x857_ 1
    x28 c_e_x905_ 1
    x28 c_u_x1001_ -0.00071428571428571429
    x29 c_u_x647_ 1
    x29 c_u_x858_ 1
    x29 c_e_x906_ 1
    x29 c_u_x1002_ -0.00071428571428571429
    x29 c_u_x1003_ -0.00071428571428571429
    x29 c_u_x1004_ -0.00071428571428571429
    x29 c_u_x1005_ -0.00071428571428571429
    x29 c_u_x1006_ -0.00071428571428571429
    x29 c_u_x1007_ -0.00071428571428571429
    x29 c_u_x1008_ -0.00071428571428571429
    x29 c_u_x1009_ -0.00071428571428571429
    x29 c_u_x1010_ -0.00071428571428571429
    x29 c_u_x1011_ -0.00071428571428571429
    x29 c_u_x1012_ -0.00071428571428571429
    x29 c_u_x1013_ -0.00071428571428571429
    x30 c_u_x647_ 1
    x30 c_u_x859_ 1
    x30 c_e_x907_ 1
    x30 c_u_x1003_ -0.00071428571428571429
    x30 c_u_x1004_ -0.00071428571428571429
    x30 c_u_x1005_ -0.00071428571428571429
    x30 c_u_x1006_ -0.00071428571428571429
    x30 c_u_x1007_ -0.00071428571428571429
    x30 c_u_x1008_ -0.00071428571428571429
    x30 c_u_x1009_ -0.00071428571428571429
    x30 c_u_x1010_ -0.00071428571428571429
    x30 c_u_x1011_ -0.00071428571428571429
    x30 c_u_x1012_ -0.00071428571428571429
    x30 c_u_x1013_ -0.00071428571428571429
    x31 c_u_x647_ 1
    x31 c_u_x860_ 1
    x31 c_e_x908_ 1
    x31 c_u_x1004_ -0.00071428571428571429
    x31 c_u_x1005_ -0.00071428571428571429
    x31 c_u_x1006_ -0.00071428571428571429
    x31 c_u_x1007_ -0.00071428571428571429
    x31 c_u_x1008_ -0.00071428571428571429
    x31 c_u_x1009_ -0.00071428571428571429
    x31 c_u_x1010_ -0.00071428571428571429
    x31 c_u_x1011_ -0.00071428571428571429
    x31 c_u_x1012_ -0.00071428571428571429
    x31 c_u_x1013_ -0.00071428571428571429
    x32 c_u_x647_ 1
    x32 c_u_x861_ 1
    x32 c_e_x909_ 1
    x32 c_u_x1005_ -0.00071428571428571429
    x32 c_u_x1006_ -0.00071428571428571429
    x32 c_u_x1007_ -0.00071428571428571429
    x32 c_u_x1008_ -0.00071428571428571429
    x32 c_u_x1009_ -0.00071428571428571429
    x32 c_u_x1010_ -0.00071428571428571429
    x32 c_u_x1011_ -0.00071428571428571429
    x32 c_u_x1012_ -0.00071428571428571429
    x32 c_u_x1013_ -0.00071428571428571429
    x33 c_u_x647_ 1
    x33 c_u_x862_ 1
    x33 c_e_x910_ 1
    x33 c_u_x1006_ -0.00071428571428571429
    x33 c_u_x1007_ -0.00071428571428571429
    x33 c_u_x1008_ -0.00071428571428571429
    x33 c_u_x1009_ -0.00071428571428571429
    x33 c_u_x1010_ -0.00071428571428571429
    x33 c_u_x1011_ -0.00071428571428571429
    x33 c_u_x1012_ -0.00071428571428571429
    x33 c_u_x1013_ -0.00071428571428571429
    x34 c_u_x647_ 1
    x34 c_u_x863_ 1
    x34 c_e_x911_ 1
    x34 c_u_x1007_ -0.00071428571428571429
    x34 c_u_x1008_ -0.00071428571428571429
    x34 c_u_x1009_ -0.00071428571428571429
    x34 c_u_x1010_ -0.00071428571428571429
    x34 c_u_x1011_ -0.00071428571428571429
    x34 c_u_x1012_ -0.00071428571428571429
    x34 c_u_x1013_ -0.00071428571428571429
    x35 c_u_x647_ 1
    x35 c_u_x864_ 1
    x35 c_e_x912_ 1
    x35 c_u_x1008_ -0.00071428571428571429
    x35 c_u_x1009_ -0.00071428571428571429
    x35 c_u_x1010_ -0.00071428571428571429
    x35 c_u_x1011_ -0.00071428571428571429
    x35 c_u_x1012_ -0.00071428571428571429
    x35 c_u_x1013_ -0.00071428571428571429
    x36 c_u_x647_ 1
    x36 c_u_x865_ 1
    x36 c_e_x913_ 1
    x36 c_u_x1009_ -0.00071428571428571429
    x36 c_u_x1010_ -0.00071428571428571429
    x36 c_u_x1011_ -0.00071428571428571429
    x36 c_u_x1012_ -0.00071428571428571429
    x36 c_u_x1013_ -0.00071428571428571429
    x37 c_u_x647_ 1
    x37 c_u_x866_ 1
    x37 c_e_x914_ 1
    x37 c_u_x1010_ -0.00071428571428571429
    x37 c_u_x1011_ -0.00071428571428571429
    x37 c_u_x1012_ -0.00071428571428571429
    x37 c_u_x1013_ -0.00071428571428571429
    x38 c_u_x647_ 1
    x38 c_u_x867_ 1
    x38 c_e_x915_ 1
    x38 c_u_x1011_ -0.00071428571428571429
    x38 c_u_x1012_ -0.00071428571428571429
    x38 c_u_x1013_ -0.00071428571428571429
    x39 c_u_x647_ 1
    x39 c_u_x868_ 1
    x39 c_e_x916_ 1
    x39 c_u_x1012_ -0.00071428571428571429
    x39 c_u_x1013_ -0.00071428571428571429
    x40 c_u_x647_ 1
    x40 c_u_x869_ 1
    x40 c_e_x917_ 1
    x40 c_u_x1013_ -0.00071428571428571429
    x41 c_u_x648_ 1
    x41 c_u_x870_ 1
    x41 c_e_x918_ 1
    x41 c_u_x1014_ -0.00071428571428571429
    x41 c_u_x1015_ -0.00071428571428571429
    x41 c_u_x1016_ -0.00071428571428571429
    x41 c_u_x1017_ -0.00071428571428571429
    x41 c_u_x1018_ -0.00071428571428571429
    x41 c_u_x1019_ -0.00071428571428571429
    x41 c_u_x1020_ -0.00071428571428571429
    x41 c_u_x1021_ -0.00071428571428571429
    x41 c_u_x1022_ -0.00071428571428571429
    x41 c_u_x1023_ -0.00071428571428571429
    x41 c_u_x1024_ -0.00071428571428571429
    x41 c_u_x1025_ -0.00071428571428571429
    x42 c_u_x648_ 1
    x42 c_u_x871_ 1
    x42 c_e_x919_ 1
    x42 c_u_x1015_ -0.00071428571428571429
    x42 c_u_x1016_ -0.00071428571428571429
    x42 c_u_x1017_ -0.00071428571428571429
    x42 c_u_x1018_ -0.00071428571428571429
    x42 c_u_x1019_ -0.00071428571428571429
    x42 c_u_x1020_ -0.00071428571428571429
    x42 c_u_x1021_ -0.00071428571428571429
    x42 c_u_x1022_ -0.00071428571428571429
    x42 c_u_x1023_ -0.00071428571428571429
    x42 c_u_x1024_ -0.00071428571428571429
    x42 c_u_x1025_ -0.00071428571428571429
    x43 c_u_x648_ 1
    x43 c_u_x872_ 1
    x43 c_e_x920_ 1
    x43 c_u_x1016_ -0.00071428571428571429
    x43 c_u_x1017_ -0.00071428571428571429
    x43 c_u_x1018_ -0.00071428571428571429
    x43 c_u_x1019_ -0.00071428571428571429
    x43 c_u_x1020_ -0.00071428571428571429
    x43 c_u_x1021_ -0.00071428571428571429
    x43 c_u_x1022_ -0.00071428571428571429
    x43 c_u_x1023_ -0.00071428571428571429
    x43 c_u_x1024_ -0.00071428571428571429
    x43 c_u_x1025_ -0.00071428571428571429
    x44 c_u_x648_ 1
    x44 c_u_x873_ 1
    x44 c_e_x921_ 1
    x44 c_u_x1017_ -0.00071428571428571429
    x44 c_u_x1018_ -0.00071428571428571429
    x44 c_u_x1019_ -0.00071428571428571429
    x44 c_u_x1020_ -0.00071428571428571429
    x44 c_u_x1021_ -0.00071428571428571429
    x44 c_u_x1022_ -0.00071428571428571429
    x44 c_u_x1023_ -0.00071428571428571429
    x44 c_u_x1024_ -0.00071428571428571429
    x44 c_u_x1025_ -0.00071428571428571429
    x45 c_u_x648_ 1
    x45 c_u_x874_ 1
    x45 c_e_x922_ 1
    x45 c_u_x1018_ -0.00071428571428571429
    x45 c_u_x1019_ -0.00071428571428571429
    x45 c_u_x1020_ -0.00071428571428571429
    x45 c_u_x1021_ -0.00071428571428571429
    x45 c_u_x1022_ -0.00071428571428571429
    x45 c_u_x1023_ -0.00071428571428571429
    x45 c_u_x1024_ -0.00071428571428571429
    x45 c_u_x1025_ -0.00071428571428571429
    x46 c_u_x648_ 1
    x46 c_u_x875_ 1
    x46 c_e_x923_ 1
    x46 c_u_x1019_ -0.00071428571428571429
    x46 c_u_x1020_ -0.00071428571428571429
    x46 c_u_x1021_ -0.00071428571428571429
    x46 c_u_x1022_ -0.00071428571428571429
    x46 c_u_x1023_ -0.00071428571428571429
    x46 c_u_x1024_ -0.00071428571428571429
    x46 c_u_x1025_ -0.00071428571428571429
    x47 c_u_x648_ 1
    x47 c_u_x876_ 1
    x47 c_e_x924_ 1
    x47 c_u_x1020_ -0.00071428571428571429
    x47 c_u_x1021_ -0.00071428571428571429
    x47 c_u_x1022_ -0.00071428571428571429
    x47 c_u_x1023_ -0.00071428571428571429
    x47 c_u_x1024_ -0.00071428571428571429
    x47 c_u_x1025_ -0.00071428571428571429
    x48 c_u_x648_ 1
    x48 c_u_x877_ 1
    x48 c_e_x925_ 1
    x48 c_u_x1021_ -0.00071428571428571429
    x48 c_u_x1022_ -0.00071428571428571429
    x48 c_u_x1023_ -0.00071428571428571429
    x48 c_u_x1024_ -0.00071428571428571429
    x48 c_u_x1025_ -0.00071428571428571429
    x49 c_u_x648_ 1
    x49 c_u_x878_ 1
    x49 c_e_x926_ 1
    x49 c_u_x1022_ -0.00071428571428571429
    x49 c_u_x1023_ -0.00071428571428571429
    x49 c_u_x1024_ -0.00071428571428571429
    x49 c_u_x1025_ -0.00071428571428571429
    x50 c_u_x648_ 1
    x50 c_u_x879_ 1
    x50 c_e_x927_ 1
    x50 c_u_x1023_ -0.00071428571428571429
    x50 c_u_x1024_ -0.00071428571428571429
    x50 c_u_x1025_ -0.00071428571428571429
    x51 c_u_x648_ 1
    x51 c_u_x880_ 1
    x51 c_e_x928_ 1
    x51 c_u_x1024_ -0.00071428571428571429
    x51 c_u_x1025_ -0.00071428571428571429
    x52 c_u_x648_ 1
    x52 c_u_x881_ 1
    x52 c_e_x929_ 1
    x52 c_u_x1025_ -0.00071428571428571429
    x53 c_u_x649_ 1
    x53 c_u_x882_ 1
    x53 c_e_x930_ 1
    x53 c_u_x1026_ -0.00071428571428571429
    x53 c_u_x1027_ -0.00071428571428571429
    x53 c_u_x1028_ -0.00071428571428571429
    x53 c_u_x1029_ -0.00071428571428571429
    x53 c_u_x1030_ -0.00071428571428571429
    x53 c_u_x1031_ -0.00071428571428571429
    x53 c_u_x1032_ -0.00071428571428571429
    x53 c_u_x1033_ -0.00071428571428571429
    x53 c_u_x1034_ -0.00071428571428571429
    x53 c_u_x1035_ -0.00071428571428571429
    x53 c_u_x1036_ -0.00071428571428571429
    x53 c_u_x1037_ -0.00071428571428571429
    x54 c_u_x649_ 1
    x54 c_u_x883_ 1
    x54 c_e_x931_ 1
    x54 c_u_x1027_ -0.00071428571428571429
    x54 c_u_x1028_ -0.00071428571428571429
    x54 c_u_x1029_ -0.00071428571428571429
    x54 c_u_x1030_ -0.00071428571428571429
    x54 c_u_x1031_ -0.00071428571428571429
    x54 c_u_x1032_ -0.00071428571428571429
    x54 c_u_x1033_ -0.00071428571428571429
    x54 c_u_x1034_ -0.00071428571428571429
    x54 c_u_x1035_ -0.00071428571428571429
    x54 c_u_x1036_ -0.00071428571428571429
    x54 c_u_x1037_ -0.00071428571428571429
    x55 c_u_x649_ 1
    x55 c_u_x884_ 1
    x55 c_e_x932_ 1
    x55 c_u_x1028_ -0.00071428571428571429
    x55 c_u_x1029_ -0.00071428571428571429
    x55 c_u_x1030_ -0.00071428571428571429
    x55 c_u_x1031_ -0.00071428571428571429
    x55 c_u_x1032_ -0.00071428571428571429
    x55 c_u_x1033_ -0.00071428571428571429
    x55 c_u_x1034_ -0.00071428571428571429
    x55 c_u_x1035_ -0.00071428571428571429
    x55 c_u_x1036_ -0.00071428571428571429
    x55 c_u_x1037_ -0.00071428571428571429
    x56 c_u_x649_ 1
    x56 c_u_x885_ 1
    x56 c_e_x933_ 1
    x56 c_u_x1029_ -0.00071428571428571429
    x56 c_u_x1030_ -0.00071428571428571429
    x56 c_u_x1031_ -0.00071428571428571429
    x56 c_u_x1032_ -0.00071428571428571429
    x56 c_u_x1033_ -0.00071428571428571429
    x56 c_u_x1034_ -0.00071428571428571429
    x56 c_u_x1035_ -0.00071428571428571429
    x56 c_u_x1036_ -0.00071428571428571429
    x56 c_u_x1037_ -0.00071428571428571429
    x57 c_u_x649_ 1
    x57 c_u_x886_ 1
    x57 c_e_x934_ 1
    x57 c_u_x1030_ -0.00071428571428571429
    x57 c_u_x1031_ -0.00071428571428571429
    x57 c_u_x1032_ -0.00071428571428571429
    x57 c_u_x1033_ -0.00071428571428571429
    x57 c_u_x1034_ -0.00071428571428571429
    x57 c_u_x1035_ -0.00071428571428571429
    x57 c_u_x1036_ -0.00071428571428571429
    x57 c_u_x1037_ -0.00071428571428571429
    x58 c_u_x649_ 1
    x58 c_u_x887_ 1
    x58 c_e_x935_ 1
    x58 c_u_x1031_ -0.00071428571428571429
    x58 c_u_x1032_ -0.00071428571428571429
    x58 c_u_x1033_ -0.00071428571428571429
    x58 c_u_x1034_ -0.00071428571428571429
    x58 c_u_x1035_ -0.00071428571428571429
    x58 c_u_x1036_ -0.00071428571428571429
    x58 c_u_x1037_ -0.00071428571428571429
    x59 c_u_x649_ 1
    x59 c_u_x888_ 1
    x59 c_e_x936_ 1
    x59 c_u_x1032_ -0.00071428571428571429
    x59 c_u_x1033_ -0.00071428571428571429
    x59 c_u_x1034_ -0.00071428571428571429
    x59 c_u_x1035_ -0.00071428571428571429
    x59 c_u_x1036_ -0.00071428571428571429
    x59 c_u_x1037_ -0.00071428571428571429
    x60 c_u_x649_ 1
    x60 c_u_x889_ 1
    x60 c_e_x937_ 1
    x60 c_u_x1033_ -0.00071428571428571429
    x60 c_u_x1034_ -0.00071428571428571429
    x60 c_u_x1035_ -0.00071428571428571429
    x60 c_u_x1036_ -0.00071428571428571429
    x60 c_u_x1037_ -0.00071428571428571429
    x61 c_u_x649_ 1
    x61 c_u_x890_ 1
    x61 c_e_x938_ 1
    x61 c_u_x1034_ -0.00071428571428571429
    x61 c_u_x1035_ -0.00071428571428571429
    x61 c_u_x1036_ -0.00071428571428571429
    x61 c_u_x1037_ -0.00071428571428571429
    x62 c_u_x649_ 1
    x62 c_u_x891_ 1
    x62 c_e_x939_ 1
    x62 c_u_x1035_ -0.00071428571428571429
    x62 c_u_x1036_ -0.00071428571428571429
    x62 c_u_x1037_ -0.00071428571428571429
    x63 c_u_x649_ 1
    x63 c_u_x892_ 1
    x63 c_e_x940_ 1
    x63 c_u_x1036_ -0.00071428571428571429
    x63 c_u_x1037_ -0.00071428571428571429
    x64 c_u_x649_ 1
    x64 c_u_x893_ 1
    x64 c_e_x941_ 1
    x64 c_u_x1037_ -0.00071428571428571429
    x65 c_u_x650_ 1
    x65 c_e_x894_ 1
    x65 c_l_x942_ -1
    x65 c_l_x943_ -1
    x65 c_l_x944_ -1
    x65 c_l_x945_ -1
    x65 c_l_x946_ -1
    x65 c_l_x947_ -1
    x65 c_l_x948_ -1
    x65 c_l_x949_ -1
    x65 c_l_x950_ -1
    x65 c_l_x951_ -1
    x65 c_l_x952_ -1
    x65 c_l_x953_ -1
    x65 c_u_x990_ -0.00071428571428571429
    x65 c_u_x991_ -0.00071428571428571429
    x65 c_u_x992_ -0.00071428571428571429
    x65 c_u_x993_ -0.00071428571428571429
    x65 c_u_x994_ -0.00071428571428571429
    x65 c_u_x995_ -0.00071428571428571429
    x65 c_u_x996_ -0.00071428571428571429
    x65 c_u_x997_ -0.00071428571428571429
    x65 c_u_x998_ -0.00071428571428571429
    x65 c_u_x999_ -0.00071428571428571429
    x65 c_u_x1000_ -0.00071428571428571429
    x65 c_u_x1001_ -0.00071428571428571429
    x66 c_u_x650_ 1
    x66 c_e_x895_ 1
    x66 c_l_x943_ -1
    x66 c_l_x944_ -1
    x66 c_l_x945_ -1
    x66 c_l_x946_ -1
    x66 c_l_x947_ -1
    x66 c_l_x948_ -1
    x66 c_l_x949_ -1
    x66 c_l_x950_ -1
    x66 c_l_x951_ -1
    x66 c_l_x952_ -1
    x66 c_l_x953_ -1
    x66 c_u_x991_ -0.00071428571428571429
    x66 c_u_x992_ -0.00071428571428571429
    x66 c_u_x993_ -0.00071428571428571429
    x66 c_u_x994_ -0.00071428571428571429
    x66 c_u_x995_ -0.00071428571428571429
    x66 c_u_x996_ -0.00071428571428571429
    x66 c_u_x997_ -0.00071428571428571429
    x66 c_u_x998_ -0.00071428571428571429
    x66 c_u_x999_ -0.00071428571428571429
    x66 c_u_x1000_ -0.00071428571428571429
    x66 c_u_x1001_ -0.00071428571428571429
    x67 c_u_x650_ 1
    x67 c_e_x896_ 1
    x67 c_l_x944_ -1
    x67 c_l_x945_ -1
    x67 c_l_x946_ -1
    x67 c_l_x947_ -1
    x67 c_l_x948_ -1
    x67 c_l_x949_ -1
    x67 c_l_x950_ -1
    x67 c_l_x951_ -1
    x67 c_l_x952_ -1
    x67 c_l_x953_ -1
    x67 c_u_x992_ -0.00071428571428571429
    x67 c_u_x993_ -0.00071428571428571429
    x67 c_u_x994_ -0.00071428571428571429
    x67 c_u_x995_ -0.00071428571428571429
    x67 c_u_x996_ -0.00071428571428571429
    x67 c_u_x997_ -0.00071428571428571429
    x67 c_u_x998_ -0.00071428571428571429
    x67 c_u_x999_ -0.00071428571428571429
    x67 c_u_x1000_ -0.00071428571428571429
    x67 c_u_x1001_ -0.00071428571428571429
    x68 c_u_x650_ 1
    x68 c_e_x897_ 1
    x68 c_l_x945_ -1
    x68 c_l_x946_ -1
    x68 c_l_x947_ -1
    x68 c_l_x948_ -1
    x68 c_l_x949_ -1
    x68 c_l_x950_ -1
    x68 c_l_x951_ -1
    x68 c_l_x952_ -1
    x68 c_l_x953_ -1
    x68 c_u_x993_ -0.00071428571428571429
    x68 c_u_x994_ -0.00071428571428571429
    x68 c_u_x995_ -0.00071428571428571429
    x68 c_u_x996_ -0.00071428571428571429
    x68 c_u_x997_ -0.00071428571428571429
    x68 c_u_x998_ -0.00071428571428571429
    x68 c_u_x999_ -0.00071428571428571429
    x68 c_u_x1000_ -0.00071428571428571429
    x68 c_u_x1001_ -0.00071428571428571429
    x69 c_u_x650_ 1
    x69 c_e_x898_ 1
    x69 c_l_x946_ -1
    x69 c_l_x947_ -1
    x69 c_l_x948_ -1
    x69 c_l_x949_ -1
    x69 c_l_x950_ -1
    x69 c_l_x951_ -1
    x69 c_l_x952_ -1
    x69 c_l_x953_ -1
    x69 c_u_x994_ -0.00071428571428571429
    x69 c_u_x995_ -0.00071428571428571429
    x69 c_u_x996_ -0.00071428571428571429
    x69 c_u_x997_ -0.00071428571428571429
    x69 c_u_x998_ -0.00071428571428571429
    x69 c_u_x999_ -0.00071428571428571429
    x69 c_u_x1000_ -0.00071428571428571429
    x69 c_u_x1001_ -0.00071428571428571429
    x70 c_u_x650_ 1
    x70 c_e_x899_ 1
    x70 c_l_x947_ -1
    x70 c_l_x948_ -1
    x70 c_l_x949_ -1
    x70 c_l_x950_ -1
    x70 c_l_x951_ -1
    x70 c_l_x952_ -1
    x70 c_l_x953_ -1
    x70 c_u_x995_ -0.00071428571428571429
    x70 c_u_x996_ -0.00071428571428571429
    x70 c_u_x997_ -0.00071428571428571429
    x70 c_u_x998_ -0.00071428571428571429
    x70 c_u_x999_ -0.00071428571428571429
    x70 c_u_x1000_ -0.00071428571428571429
    x70 c_u_x1001_ -0.00071428571428571429
    x71 c_u_x650_ 1
    x71 c_e_x900_ 1
    x71 c_l_x948_ -1
    x71 c_l_x949_ -1
    x71 c_l_x950_ -1
    x71 c_l_x951_ -1
    x71 c_l_x952_ -1
    x71 c_l_x953_ -1
    x71 c_u_x996_ -0.00071428571428571429
    x71 c_u_x997_ -0.00071428571428571429
    x71 c_u_x998_ -0.00071428571428571429
    x71 c_u_x999_ -0.00071428571428571429
    x71 c_u_x1000_ -0.00071428571428571429
    x71 c_u_x1001_ -0.00071428571428571429
    x72 c_u_x650_ 1
    x72 c_e_x901_ 1
    x72 c_l_x949_ -1
    x72 c_l_x950_ -1
    x72 c_l_x951_ -1
    x72 c_l_x952_ -1
    x72 c_l_x953_ -1
    x72 c_u_x997_ -0.00071428571428571429
    x72 c_u_x998_ -0.00071428571428571429
    x72 c_u_x999_ -0.00071428571428571429
    x72 c_u_x1000_ -0.00071428571428571429
    x72 c_u_x1001_ -0.00071428571428571429
    x73 c_u_x650_ 1
    x73 c_e_x902_ 1
    x73 c_l_x950_ -1
    x73 c_l_x951_ -1
    x73 c_l_x952_ -1
    x73 c_l_x953_ -1
    x73 c_u_x998_ -0.00071428571428571429
    x73 c_u_x999_ -0.00071428571428571429
    x73 c_u_x1000_ -0.00071428571428571429
    x73 c_u_x1001_ -0.00071428571428571429
    x74 c_u_x650_ 1
    x74 c_e_x903_ 1
    x74 c_l_x951_ -1
    x74 c_l_x952_ -1
    x74 c_l_x953_ -1
    x74 c_u_x999_ -0.00071428571428571429
    x74 c_u_x1000_ -0.00071428571428571429
    x74 c_u_x1001_ -0.00071428571428571429
    x75 c_u_x650_ 1
    x75 c_e_x904_ 1
    x75 c_l_x952_ -1
    x75 c_l_x953_ -1
    x75 c_u_x1000_ -0.00071428571428571429
    x75 c_u_x1001_ -0.00071428571428571429
    x76 c_u_x650_ 1
    x76 c_e_x905_ 1
    x76 c_l_x953_ -1
    x76 c_u_x1001_ -0.00071428571428571429
    x77 c_u_x651_ 1
    x77 c_e_x906_ 1
    x77 c_l_x954_ -1
    x77 c_l_x955_ -1
    x77 c_l_x956_ -1
    x77 c_l_x957_ -1
    x77 c_l_x958_ -1
    x77 c_l_x959_ -1
    x77 c_l_x960_ -1
    x77 c_l_x961_ -1
    x77 c_l_x962_ -1
    x77 c_l_x963_ -1
    x77 c_l_x964_ -1
    x77 c_l_x965_ -1
    x77 c_u_x1002_ -0.00071428571428571429
    x77 c_u_x1003_ -0.00071428571428571429
    x77 c_u_x1004_ -0.00071428571428571429
    x77 c_u_x1005_ -0.00071428571428571429
    x77 c_u_x1006_ -0.00071428571428571429
    x77 c_u_x1007_ -0.00071428571428571429
    x77 c_u_x1008_ -0.00071428571428571429
    x77 c_u_x1009_ -0.00071428571428571429
    x77 c_u_x1010_ -0.00071428571428571429
    x77 c_u_x1011_ -0.00071428571428571429
    x77 c_u_x1012_ -0.00071428571428571429
    x77 c_u_x1013_ -0.00071428571428571429
    x78 c_u_x651_ 1
    x78 c_e_x907_ 1
    x78 c_l_x955_ -1
    x78 c_l_x956_ -1
    x78 c_l_x957_ -1
    x78 c_l_x958_ -1
    x78 c_l_x959_ -1
    x78 c_l_x960_ -1
    x78 c_l_x961_ -1
    x78 c_l_x962_ -1
    x78 c_l_x963_ -1
    x78 c_l_x964_ -1
    x78 c_l_x965_ -1
    x78 c_u_x1003_ -0.00071428571428571429
    x78 c_u_x1004_ -0.00071428571428571429
    x78 c_u_x1005_ -0.00071428571428571429
    x78 c_u_x1006_ -0.00071428571428571429
    x78 c_u_x1007_ -0.00071428571428571429
    x78 c_u_x1008_ -0.00071428571428571429
    x78 c_u_x1009_ -0.00071428571428571429
    x78 c_u_x1010_ -0.00071428571428571429
    x78 c_u_x1011_ -0.00071428571428571429
    x78 c_u_x1012_ -0.00071428571428571429
    x78 c_u_x1013_ -0.00071428571428571429
    x79 c_u_x651_ 1
    x79 c_e_x908_ 1
    x79 c_l_x956_ -1
    x79 c_l_x957_ -1
    x79 c_l_x958_ -1
    x79 c_l_x959_ -1
    x79 c_l_x960_ -1
    x79 c_l_x961_ -1
    x79 c_l_x962_ -1
    x79 c_l_x963_ -1
    x79 c_l_x964_ -1
    x79 c_l_x965_ -1
    x79 c_u_x1004_ -0.00071428571428571429
    x79 c_u_x1005_ -0.00071428571428571429
    x79 c_u_x1006_ -0.00071428571428571429
    x79 c_u_x1007_ -0.00071428571428571429
    x79 c_u_x1008_ -0.00071428571428571429
    x79 c_u_x1009_ -0.00071428571428571429
    x79 c_u_x1010_ -0.00071428571428571429
    x79 c_u_x1011_ -0.00071428571428571429
    x79 c_u_x1012_ -0.00071428571428571429
    x79 c_u_x1013_ -0.00071428571428571429
    x80 c_u_x651_ 1
    x80 c_e_x909_ 1
    x80 c_l_x957_ -1
    x80 c_l_x958_ -1
    x80 c_l_x959_ -1
    x80 c_l_x960_ -1
    x80 c_l_x961_ -1
    x80 c_l_x962_ -1
    x80 c_l_x963_ -1
    x80 c_l_x964_ -1
    x80 c_l_x965_ -1
    x80 c_u_x1005_ -0.00071428571428571429
    x80 c_u_x1006_ -0.00071428571428571429
    x80 c_u_x1007_ -0.00071428571428571429
    x80 c_u_x1008_ -0.00071428571428571429
    x80 c_u_x1009_ -0.00071428571428571429
    x80 c_u_x1010_ -0.00071428571428571429
    x80 c_u_x1011_ -0.00071428571428571429
    x80 c_u_x1012_ -0.00071428571428571429
    x80 c_u_x1013_ -0.00071428571428571429
    x81 c_u_x651_ 1
    x81 c_e_x910_ 1
    x81 c_l_x958_ -1
    x81 c_l_x959_ -1
    x81 c_l_x960_ -1
    x81 c_l_x961_ -1
    x81 c_l_x962_ -1
    x81 c_l_x963_ -1
    x81 c_l_x964_ -1
    x81 c_l_x965_ -1
    x81 c_u_x1006_ -0.00071428571428571429
    x81 c_u_x1007_ -0.00071428571428571429
    x81 c_u_x1008_ -0.00071428571428571429
    x81 c_u_x1009_ -0.00071428571428571429
    x81 c_u_x1010_ -0.00071428571428571429
    x81 c_u_x1011_ -0.00071428571428571429
    x81 c_u_x1012_ -0.00071428571428571429
    x81 c_u_x1013_ -0.00071428571428571429
    x82 c_u_x651_ 1
    x82 c_e_x911_ 1
    x82 c_l_x959_ -1
    x82 c_l_x960_ -1
    x82 c_l_x961_ -1
    x82 c_l_x962_ -1
    x82 c_l_x963_ -1
    x82 c_l_x964_ -1
    x82 c_l_x965_ -1
    x82 c_u_x1007_ -0.00071428571428571429
    x82 c_u_x1008_ -0.00071428571428571429
    x82 c_u_x1009_ -0.00071428571428571429
    x82 c_u_x1010_ -0.00071428571428571429
    x82 c_u_x1011_ -0.00071428571428571429
    x82 c_u_x1012_ -0.00071428571428571429
    x82 c_u_x1013_ -0.00071428571428571429
    x83 c_u_x651_ 1
    x83 c_e_x912_ 1
    x83 c_l_x960_ -1
    x83 c_l_x961_ -1
    x83 c_l_x962_ -1
    x83 c_l_x963_ -1
    x83 c_l_x964_ -1
    x83 c_l_x965_ -1
    x83 c_u_x1008_ -0.00071428571428571429
    x83 c_u_x1009_ -0.00071428571428571429
    x83 c_u_x1010_ -0.00071428571428571429
    x83 c_u_x1011_ -0.00071428571428571429
    x83 c_u_x1012_ -0.00071428571428571429
    x83 c_u_x1013_ -0.00071428571428571429
    x84 c_u_x651_ 1
    x84 c_e_x913_ 1
    x84 c_l_x961_ -1
    x84 c_l_x962_ -1
    x84 c_l_x963_ -1
    x84 c_l_x964_ -1
    x84 c_l_x965_ -1
    x84 c_u_x1009_ -0.00071428571428571429
    x84 c_u_x1010_ -0.00071428571428571429
    x84 c_u_x1011_ -0.00071428571428571429
    x84 c_u_x1012_ -0.00071428571428571429
    x84 c_u_x1013_ -0.00071428571428571429
    x85 c_u_x651_ 1
    x85 c_e_x914_ 1
    x85 c_l_x962_ -1
    x85 c_l_x963_ -1
    x85 c_l_x964_ -1
    x85 c_l_x965_ -1
    x85 c_u_x1010_ -0.00071428571428571429
    x85 c_u_x1011_ -0.00071428571428571429
    x85 c_u_x1012_ -0.00071428571428571429
    x85 c_u_x1013_ -0.00071428571428571429
    x86 c_u_x651_ 1
    x86 c_e_x915_ 1
    x86 c_l_x963_ -1
    x86 c_l_x964_ -1
    x86 c_l_x965_ -1
    x86 c_u_x1011_ -0.00071428571428571429
    x86 c_u_x1012_ -0.00071428571428571429
    x86 c_u_x1013_ -0.00071428571428571429
    x87 c_u_x651_ 1
    x87 c_e_x916_ 1
    x87 c_l_x964_ -1
    x87 c_l_x965_ -1
    x87 c_u_x1012_ -0.00071428571428571429
    x87 c_u_x1013_ -0.00071428571428571429
    x88 c_u_x651_ 1
    x88 c_e_x917_ 1
    x88 c_l_x965_ -1
    x88 c_u_x1013_ -0.00071428571428571429
    x89 c_u_x652_ 1
    x89 c_e_x918_ 1
    x89 c_l_x966_ -1
    x89 c_l_x967_ -1
    x89 c_l_x968_ -1
    x89 c_l_x969_ -1
    x89 c_l_x970_ -1
    x89 c_l_x971_ -1
    x89 c_l_x972_ -1
    x89 c_l_x973_ -1
    x89 c_l_x974_ -1
    x89 c_l_x975_ -1
    x89 c_l_x976_ -1
    x89 c_l_x977_ -1
    x89 c_u_x1014_ -0.00071428571428571429
    x89 c_u_x1015_ -0.00071428571428571429
    x89 c_u_x1016_ -0.00071428571428571429
    x89 c_u_x1017_ -0.00071428571428571429
    x89 c_u_x1018_ -0.00071428571428571429
    x89 c_u_x1019_ -0.00071428571428571429
    x89 c_u_x1020_ -0.00071428571428571429
    x89 c_u_x1021_ -0.00071428571428571429
    x89 c_u_x1022_ -0.00071428571428571429
    x89 c_u_x1023_ -0.00071428571428571429
    x89 c_u_x1024_ -0.00071428571428571429
    x89 c_u_x1025_ -0.00071428571428571429
    x90 c_u_x652_ 1
    x90 c_e_x919_ 1
    x90 c_l_x967_ -1
    x90 c_l_x968_ -1
    x90 c_l_x969_ -1
    x90 c_l_x970_ -1
    x90 c_l_x971_ -1
    x90 c_l_x972_ -1
    x90 c_l_x973_ -1
    x90 c_l_x974_ -1
    x90 c_l_x975_ -1
    x90 c_l_x976_ -1
    x90 c_l_x977_ -1
    x90 c_u_x1015_ -0.00071428571428571429
    x90 c_u_x1016_ -0.00071428571428571429
    x90 c_u_x1017_ -0.00071428571428571429
    x90 c_u_x1018_ -0.00071428571428571429
    x90 c_u_x1019_ -0.00071428571428571429
    x90 c_u_x1020_ -0.00071428571428571429
    x90 c_u_x1021_ -0.00071428571428571429
    x90 c_u_x1022_ -0.00071428571428571429
    x90 c_u_x1023_ -0.00071428571428571429
    x90 c_u_x1024_ -0.00071428571428571429
    x90 c_u_x1025_ -0.00071428571428571429
    x91 c_u_x652_ 1
    x91 c_e_x920_ 1
    x91 c_l_x968_ -1
    x91 c_l_x969_ -1
    x91 c_l_x970_ -1
    x91 c_l_x971_ -1
    x91 c_l_x972_ -1
    x91 c_l_x973_ -1
    x91 c_l_x974_ -1
    x91 c_l_x975_ -1
    x91 c_l_x976_ -1
    x91 c_l_x977_ -1
    x91 c_u_x1016_ -0.00071428571428571429
    x91 c_u_x1017_ -0.00071428571428571429
    x91 c_u_x1018_ -0.00071428571428571429
    x91 c_u_x1019_ -0.00071428571428571429
    x91 c_u_x1020_ -0.00071428571428571429
    x91 c_u_x1021_ -0.00071428571428571429
    x91 c_u_x1022_ -0.00071428571428571429
    x91 c_u_x1023_ -0.00071428571428571429
    x91 c_u_x1024_ -0.00071428571428571429
    x91 c_u_x1025_ -0.00071428571428571429
    x92 c_u_x652_ 1
    x92 c_e_x921_ 1
    x92 c_l_x969_ -1
    x92 c_l_x970_ -1
    x92 c_l_x971_ -1
    x92 c_l_x972_ -1
    x92 c_l_x973_ -1
    x92 c_l_x974_ -1
    x92 c_l_x975_ -1
    x92 c_l_x976_ -1
    x92 c_l_x977_ -1
    x92 c_u_x1017_ -0.00071428571428571429
    x92 c_u_x1018_ -0.00071428571428571429
    x92 c_u_x1019_ -0.00071428571428571429
    x92 c_u_x1020_ -0.00071428571428571429
    x92 c_u_x1021_ -0.00071428571428571429
    x92 c_u_x1022_ -0.00071428571428571429
    x92 c_u_x1023_ -0.00071428571428571429
    x92 c_u_x1024_ -0.00071428571428571429
    x92 c_u_x1025_ -0.00071428571428571429
    x93 c_u_x652_ 1
    x93 c_e_x922_ 1
    x93 c_l_x970_ -1
    x93 c_l_x971_ -1
    x93 c_l_x972_ -1
    x93 c_l_x973_ -1
    x93 c_l_x974_ -1
    x93 c_l_x975_ -1
    x93 c_l_x976_ -1
    x93 c_l_x977_ -1
    x93 c_u_x1018_ -0.00071428571428571429
    x93 c_u_x1019_ -0.00071428571428571429
    x93 c_u_x1020_ -0.00071428571428571429
    x93 c_u_x1021_ -0.00071428571428571429
    x93 c_u_x1022_ -0.00071428571428571429
    x93 c_u_x1023_ -0.00071428571428571429
    x93 c_u_x1024_ -0.00071428571428571429
    x93 c_u_x1025_ -0.00071428571428571429
    x94 c_u_x652_ 1
    x94 c_e_x923_ 1
    x94 c_l_x971_ -1
    x94 c_l_x972_ -1
    x94 c_l_x973_ -1
    x94 c_l_x974_ -1
    x94 c_l_x975_ -1
    x94 c_l_x976_ -1
    x94 c_l_x977_ -1
    x94 c_u_x1019_ -0.00071428571428571429
    x94 c_u_x1020_ -0.00071428571428571429
    x94 c_u_x1021_ -0.00071428571428571429
    x94 c_u_x1022_ -0.00071428571428571429
    x94 c_u_x1023_ -0.00071428571428571429
    x94 c_u_x1024_ -0.00071428571428571429
    x94 c_u_x1025_ -0.00071428571428571429
    x95 c_u_x652_ 1
    x95 c_e_x924_ 1
    x95 c_l_x972_ -1
    x95 c_l_x973_ -1
    x95 c_l_x974_ -1
    x95 c_l_x975_ -1
    x95 c_l_x976_ -1
    x95 c_l_x977_ -1
    x95 c_u_x1020_ -0.00071428571428571429
    x95 c_u_x1021_ -0.00071428571428571429
    x95 c_u_x1022_ -0.00071428571428571429
    x95 c_u_x1023_ -0.00071428571428571429
    x95 c_u_x1024_ -0.00071428571428571429
    x95 c_u_x1025_ -0.00071428571428571429
    x96 c_u_x652_ 1
    x96 c_e_x925_ 1
    x96 c_l_x973_ -1
    x96 c_l_x974_ -1
    x96 c_l_x975_ -1
    x96 c_l_x976_ -1
    x96 c_l_x977_ -1
    x96 c_u_x1021_ -0.00071428571428571429
    x96 c_u_x1022_ -0.00071428571428571429
    x96 c_u_x1023_ -0.00071428571428571429
    x96 c_u_x1024_ -0.00071428571428571429
    x96 c_u_x1025_ -0.00071428571428571429
    x97 c_u_x652_ 1
    x97 c_e_x926_ 1
    x97 c_l_x974_ -1
    x97 c_l_x975_ -1
    x97 c_l_x976_ -1
    x97 c_l_x977_ -1
    x97 c_u_x1022_ -0.00071428571428571429
    x97 c_u_x1023_ -0.00071428571428571429
    x97 c_u_x1024_ -0.00071428571428571429
    x97 c_u_x1025_ -0.00071428571428571429
    x98 c_u_x652_ 1
    x98 c_e_x927_ 1
    x98 c_l_x975_ -1
    x98 c_l_x976_ -1
    x98 c_l_x977_ -1
    x98 c_u_x1023_ -0.00071428571428571429
    x98 c_u_x1024_ -0.00071428571428571429
    x98 c_u_x1025_ -0.00071428571428571429
    x99 c_u_x652_ 1
    x99 c_e_x928_ 1
    x99 c_l_x976_ -1
    x99 c_l_x977_ -1
    x99 c_u_x1024_ -0.00071428571428571429
    x99 c_u_x1025_ -0.00071428571428571429
    x100 c_u_x652_ 1
    x100 c_e_x929_ 1
    x100 c_l_x977_ -1
    x100 c_u_x1025_ -0.00071428571428571429
    x101 c_u_x653_ 1
    x101 c_e_x930_ 1
    x101 c_l_x978_ -1
    x101 c_l_x979_ -1
    x101 c_l_x980_ -1
    x101 c_l_x981_ -1
    x101 c_l_x982_ -1
    x101 c_l_x983_ -1
    x101 c_l_x984_ -1
    x101 c_l_x985_ -1
    x101 c_l_x986_ -1
    x101 c_l_x987_ -1
    x101 c_l_x988_ -1
    x101 c_l_x989_ -1
    x101 c_u_x1026_ -0.00071428571428571429
    x101 c_u_x1027_ -0.00071428571428571429
    x101 c_u_x1028_ -0.00071428571428571429
    x101 c_u_x1029_ -0.00071428571428571429
    x101 c_u_x1030_ -0.00071428571428571429
    x101 c_u_x1031_ -0.00071428571428571429
    x101 c_u_x1032_ -0.00071428571428571429
    x101 c_u_x1033_ -0.00071428571428571429
    x101 c_u_x1034_ -0.00071428571428571429
    x101 c_u_x1035_ -0.00071428571428571429
    x101 c_u_x1036_ -0.00071428571428571429
    x101 c_u_x1037_ -0.00071428571428571429
    x102 c_u_x653_ 1
    x102 c_e_x931_ 1
    x102 c_l_x979_ -1
    x102 c_l_x980_ -1
    x102 c_l_x981_ -1
    x102 c_l_x982_ -1
    x102 c_l_x983_ -1
    x102 c_l_x984_ -1
    x102 c_l_x985_ -1
    x102 c_l_x986_ -1
    x102 c_l_x987_ -1
    x102 c_l_x988_ -1
    x102 c_l_x989_ -1
    x102 c_u_x1027_ -0.00071428571428571429
    x102 c_u_x1028_ -0.00071428571428571429
    x102 c_u_x1029_ -0.00071428571428571429
    x102 c_u_x1030_ -0.00071428571428571429
    x102 c_u_x1031_ -0.00071428571428571429
    x102 c_u_x1032_ -0.00071428571428571429
    x102 c_u_x1033_ -0.00071428571428571429
    x102 c_u_x1034_ -0.00071428571428571429
    x102 c_u_x1035_ -0.00071428571428571429
    x102 c_u_x1036_ -0.00071428571428571429
    x102 c_u_x1037_ -0.00071428571428571429
    x103 c_u_x653_ 1
    x103 c_e_x932_ 1
    x103 c_l_x980_ -1
    x103 c_l_x981_ -1
    x103 c_l_x982_ -1
    x103 c_l_x983_ -1
    x103 c_l_x984_ -1
    x103 c_l_x985_ -1
    x103 c_l_x986_ -1
    x103 c_l_x987_ -1
    x103 c_l_x988_ -1
    x103 c_l_x989_ -1
    x103 c_u_x1028_ -0.00071428571428571429
    x103 c_u_x1029_ -0.00071428571428571429
    x103 c_u_x1030_ -0.00071428571428571429
    x103 c_u_x1031_ -0.00071428571428571429
    x103 c_u_x1032_ -0.00071428571428571429
    x103 c_u_x1033_ -0.00071428571428571429
    x103 c_u_x1034_ -0.00071428571428571429
    x103 c_u_x1035_ -0.00071428571428571429
    x103 c_u_x1036_ -0.00071428571428571429
    x103 c_u_x1037_ -0.00071428571428571429
    x104 c_u_x653_ 1
    x104 c_e_x933_ 1
    x104 c_l_x981_ -1
    x104 c_l_x982_ -1
    x104 c_l_x983_ -1
    x104 c_l_x984_ -1
    x104 c_l_x985_ -1
    x104 c_l_x986_ -1
    x104 c_l_x987_ -1
    x104 c_l_x988_ -1
    x104 c_l_x989_ -1
    x104 c_u_x1029_ -0.00071428571428571429
    x104 c_u_x1030_ -0.00071428571428571429
    x104 c_u_x1031_ -0.00071428571428571429
    x104 c_u_x1032_ -0.00071428571428571429
    x104 c_u_x1033_ -0.00071428571428571429
    x104 c_u_x1034_ -0.00071428571428571429
    x104 c_u_x1035_ -0.00071428571428571429
    x104 c_u_x1036_ -0.00071428571428571429
    x104 c_u_x1037_ -0.00071428571428571429
    x105 c_u_x653_ 1
    x105 c_e_x934_ 1
    x105 c_l_x982_ -1
    x105 c_l_x983_ -1
    x105 c_l_x984_ -1
    x105 c_l_x985_ -1
    x105 c_l_x986_ -1
    x105 c_l_x987_ -1
    x105 c_l_x988_ -1
    x105 c_l_x989_ -1
    x105 c_u_x1030_ -0.00071428571428571429
    x105 c_u_x1031_ -0.00071428571428571429
    x105 c_u_x1032_ -0.00071428571428571429
    x105 c_u_x1033_ -0.00071428571428571429
    x105 c_u_x1034_ -0.00071428571428571429
    x105 c_u_x1035_ -0.00071428571428571429
    x105 c_u_x1036_ -0.00071428571428571429
    x105 c_u_x1037_ -0.00071428571428571429
    x106 c_u_x653_ 1
    x106 c_e_x935_ 1
    x106 c_l_x983_ -1
    x106 c_l_x984_ -1
    x106 c_l_x985_ -1
    x106 c_l_x986_ -1
    x106 c_l_x987_ -1
    x106 c_l_x988_ -1
    x106 c_l_x989_ -1
    x106 c_u_x1031_ -0.00071428571428571429
    x106 c_u_x1032_ -0.00071428571428571429
    x106 c_u_x1033_ -0.00071428571428571429
    x106 c_u_x1034_ -0.00071428571428571429
    x106 c_u_x1035_ -0.00071428571428571429
    x106 c_u_x1036_ -0.00071428571428571429
    x106 c_u_x1037_ -0.00071428571428571429
    x107 c_u_x653_ 1
    x107 c_e_x936_ 1
    x107 c_l_x984_ -1
    x107 c_l_x985_ -1
    x107 c_l_x986_ -1
    x107 c_l_x987_ -1
    x107 c_l_x988_ -1
    x107 c_l_x989_ -1
    x107 c_u_x1032_ -0.00071428571428571429
    x107 c_u_x1033_ -0.00071428571428571429
    x107 c_u_x1034_ -0.00071428571428571429
    x107 c_u_x1035_ -0.00071428571428571429
    x107 c_u_x1036_ -0.00071428571428571429
    x107 c_u_x1037_ -0.00071428571428571429
    x108 c_u_x653_ 1
    x108 c_e_x937_ 1
    x108 c_l_x985_ -1
    x108 c_l_x986_ -1
    x108 c_l_x987_ -1
    x108 c_l_x988_ -1
    x108 c_l_x989_ -1
    x108 c_u_x1033_ -0.00071428571428571429
    x108 c_u_x1034_ -0.00071428571428571429
    x108 c_u_x1035_ -0.00071428571428571429
    x108 c_u_x1036_ -0.00071428571428571429
    x108 c_u_x1037_ -0.00071428571428571429
    x109 c_u_x653_ 1
    x109 c_e_x938_ 1
    x109 c_l_x986_ -1
    x109 c_l_x987_ -1
    x109 c_l_x988_ -1
    x109 c_l_x989_ -1
    x109 c_u_x1034_ -0.00071428571428571429
    x109 c_u_x1035_ -0.00071428571428571429
    x109 c_u_x1036_ -0.00071428571428571429
    x109 c_u_x1037_ -0.00071428571428571429
    x110 c_u_x653_ 1
    x110 c_e_x939_ 1
    x110 c_l_x987_ -1
    x110 c_l_x988_ -1
    x110 c_l_x989_ -1
    x110 c_u_x1035_ -0.00071428571428571429
    x110 c_u_x1036_ -0.00071428571428571429
    x110 c_u_x1037_ -0.00071428571428571429
    x111 c_u_x653_ 1
    x111 c_e_x940_ 1
    x111 c_l_x988_ -1
    x111 c_l_x989_ -1
    x111 c_u_x1036_ -0.00071428571428571429
    x111 c_u_x1037_ -0.00071428571428571429
    x112 c_u_x653_ 1
    x112 c_e_x941_ 1
    x112 c_l_x989_ -1
    x112 c_u_x1037_ -0.00071428571428571429
    x114 c_u_x654_ 1
    x114 c_u_x655_ 1
    x114 c_u_x656_ 1
    x114 c_u_x657_ 1
    x114 c_u_x658_ 1
    x114 c_u_x659_ 1
    x114 c_u_x660_ 1
    x114 c_u_x661_ 1
    x114 c_u_x662_ 1
    x114 c_u_x663_ 1
    x114 c_u_x664_ 1
    x114 c_u_x665_ 1
    x114 c_e_x894_ 0.55000000000000004
    x114 c_l_x942_ -1
    x114 c_l_x943_ -1
    x114 c_l_x944_ -1
    x114 c_l_x945_ -1
    x114 c_l_x946_ -1
    x114 c_l_x947_ -1
    x114 c_l_x948_ -1
    x114 c_l_x949_ -1
    x114 c_l_x950_ -1
    x114 c_l_x951_ -1
    x114 c_l_x952_ -1
    x114 c_l_x953_ -1
    x114 c_u_x990_ -0.00063734862970044612
    x114 c_u_x991_ -0.00063734862970044612
    x114 c_u_x992_ -0.00063734862970044612
    x114 c_u_x993_ -0.00063734862970044612
    x114 c_u_x994_ -0.00063734862970044612
    x114 c_u_x995_ -0.00063734862970044612
    x114 c_u_x996_ -0.00063734862970044612
    x114 c_u_x997_ -0.00063734862970044612
    x114 c_u_x998_ -0.00063734862970044612
    x114 c_u_x999_ -0.00063734862970044612
    x114 c_u_x1000_ -0.00063734862970044612
    x114 c_u_x1001_ -0.00063734862970044612
    x116 c_u_x655_ 1
    x116 c_u_x656_ 1
    x116 c_u_x657_ 1
    x116 c_u_x658_ 1
    x116 c_u_x659_ 1
    x116 c_u_x660_ 1
    x116 c_u_x661_ 1
    x116 c_u_x662_ 1
    x116 c_u_x663_ 1
    x116 c_u_x664_ 1
    x116 c_u_x665_ 1
    x116 c_e_x895_ 0.55000000000000004
    x116 c_l_x943_ -1
    x116 c_l_x944_ -1
    x116 c_l_x945_ -1
    x116 c_l_x946_ -1
    x116 c_l_x947_ -1
    x116 c_l_x948_ -1
    x116 c_l_x949_ -1
    x116 c_l_x950_ -1
    x116 c_l_x951_ -1
    x116 c_l_x952_ -1
    x116 c_l_x953_ -1
    x116 c_u_x991_ -0.00063734862970044612
    x116 c_u_x992_ -0.00063734862970044612
    x116 c_u_x993_ -0.00063734862970044612
    x116 c_u_x994_ -0.00063734862970044612
    x116 c_u_x995_ -0.00063734862970044612
    x116 c_u_x996_ -0.00063734862970044612
    x116 c_u_x997_ -0.00063734862970044612
    x116 c_u_x998_ -0.00063734862970044612
    x116 c_u_x999_ -0.00063734862970044612
    x116 c_u_x1000_ -0.00063734862970044612
    x116 c_u_x1001_ -0.00063734862970044612
    x118 c_u_x656_ 1
    x118 c_u_x657_ 1
    x118 c_u_x658_ 1
    x118 c_u_x659_ 1
    x118 c_u_x660_ 1
    x118 c_u_x661_ 1
    x118 c_u_x662_ 1
    x118 c_u_x663_ 1
    x118 c_u_x664_ 1
    x118 c_u_x665_ 1
    x118 c_e_x896_ 0.55000000000000004
    x118 c_l_x944_ -1
    x118 c_l_x945_ -1
    x118 c_l_x946_ -1
    x118 c_l_x947_ -1
    x118 c_l_x948_ -1
    x118 c_l_x949_ -1
    x118 c_l_x950_ -1
    x118 c_l_x951_ -1
    x118 c_l_x952_ -1
    x118 c_l_x953_ -1
    x118 c_u_x992_ -0.00063734862970044612
    x118 c_u_x993_ -0.00063734862970044612
    x118 c_u_x994_ -0.00063734862970044612
    x118 c_u_x995_ -0.00063734862970044612
    x118 c_u_x996_ -0.00063734862970044612
    x118 c_u_x997_ -0.00063734862970044612
    x118 c_u_x998_ -0.00063734862970044612
    x118 c_u_x999_ -0.00063734862970044612
    x118 c_u_x1000_ -0.00063734862970044612
    x118 c_u_x1001_ -0.00063734862970044612
    x120 c_u_x657_ 1
    x120 c_u_x658_ 1
    x120 c_u_x659_ 1
    x120 c_u_x660_ 1
    x120 c_u_x661_ 1
    x120 c_u_x662_ 1
    x120 c_u_x663_ 1
    x120 c_u_x664_ 1
    x120 c_u_x665_ 1
    x120 c_e_x897_ 0.55000000000000004
    x120 c_l_x945_ -1
    x120 c_l_x946_ -1
    x120 c_l_x947_ -1
    x120 c_l_x948_ -1
    x120 c_l_x949_ -1
    x120 c_l_x950_ -1
    x120 c_l_x951_ -1
    x120 c_l_x952_ -1
    x120 c_l_x953_ -1
    x120 c_u_x993_ -0.00063734862970044612
    x120 c_u_x994_ -0.00063734862970044612
    x120 c_u_x995_ -0.00063734862970044612
    x120 c_u_x996_ -0.00063734862970044612
    x120 c_u_x997_ -0.00063734862970044612
    x120 c_u_x998_ -0.00063734862970044612
    x120 c_u_x999_ -0.00063734862970044612
    x120 c_u_x1000_ -0.00063734862970044612
    x120 c_u_x1001_ -0.00063734862970044612
    x122 c_u_x658_ 1
    x122 c_u_x659_ 1
    x122 c_u_x660_ 1
    x122 c_u_x661_ 1
    x122 c_u_x662_ 1
    x122 c_u_x663_ 1
    x122 c_u_x664_ 1
    x122 c_u_x665_ 1
    x122 c_e_x898_ 0.55000000000000004
    x122 c_l_x946_ -1
    x122 c_l_x947_ -1
    x122 c_l_x948_ -1
    x122 c_l_x949_ -1
    x122 c_l_x950_ -1
    x122 c_l_x951_ -1
    x122 c_l_x952_ -1
    x122 c_l_x953_ -1
    x122 c_u_x994_ -0.00063734862970044612
    x122 c_u_x995_ -0.00063734862970044612
    x122 c_u_x996_ -0.00063734862970044612
    x122 c_u_x997_ -0.00063734862970044612
    x122 c_u_x998_ -0.00063734862970044612
    x122 c_u_x999_ -0.00063734862970044612
    x122 c_u_x1000_ -0.00063734862970044612
    x122 c_u_x1001_ -0.00063734862970044612
    x124 c_u_x659_ 1
    x124 c_u_x660_ 1
    x124 c_u_x661_ 1
    x124 c_u_x662_ 1
    x124 c_u_x663_ 1
    x124 c_u_x664_ 1
    x124 c_u_x665_ 1
    x124 c_e_x899_ 0.55000000000000004
    x124 c_l_x947_ -1
    x124 c_l_x948_ -1
    x124 c_l_x949_ -1
    x124 c_l_x950_ -1
    x124 c_l_x951_ -1
    x124 c_l_x952_ -1
    x124 c_l_x953_ -1
    x124 c_u_x995_ -0.00063734862970044612
    x124 c_u_x996_ -0.00063734862970044612
    x124 c_u_x997_ -0.00063734862970044612
    x124 c_u_x998_ -0.00063734862970044612
    x124 c_u_x999_ -0.00063734862970044612
    x124 c_u_x1000_ -0.00063734862970044612
    x124 c_u_x1001_ -0.00063734862970044612
    x126 c_u_x660_ 1
    x126 c_u_x661_ 1
    x126 c_u_x662_ 1
    x126 c_u_x663_ 1
    x126 c_u_x664_ 1
    x126 c_u_x665_ 1
    x126 c_e_x900_ 0.55000000000000004
    x126 c_l_x948_ -1
    x126 c_l_x949_ -1
    x126 c_l_x950_ -1
    x126 c_l_x951_ -1
    x126 c_l_x952_ -1
    x126 c_l_x953_ -1
    x126 c_u_x996_ -0.00063734862970044612
    x126 c_u_x997_ -0.00063734862970044612
    x126 c_u_x998_ -0.00063734862970044612
    x126 c_u_x999_ -0.00063734862970044612
    x126 c_u_x1000_ -0.00063734862970044612
    x126 c_u_x1001_ -0.00063734862970044612
    x128 c_u_x661_ 1
    x128 c_u_x662_ 1
    x128 c_u_x663_ 1
    x128 c_u_x664_ 1
    x128 c_u_x665_ 1
    x128 c_e_x901_ 0.55000000000000004
    x128 c_l_x949_ -1
    x128 c_l_x950_ -1
    x128 c_l_x951_ -1
    x128 c_l_x952_ -1
    x128 c_l_x953_ -1
    x128 c_u_x997_ -0.00063734862970044612
    x128 c_u_x998_ -0.00063734862970044612
    x128 c_u_x999_ -0.00063734862970044612
    x128 c_u_x1000_ -0.00063734862970044612
    x128 c_u_x1001_ -0.00063734862970044612
    x130 c_u_x662_ 1
    x130 c_u_x663_ 1
    x130 c_u_x664_ 1
    x130 c_u_x665_ 1
    x130 c_e_x902_ 0.55000000000000004
    x130 c_l_x950_ -1
    x130 c_l_x951_ -1
    x130 c_l_x952_ -1
    x130 c_l_x953_ -1
    x130 c_u_x998_ -0.00063734862970044612
    x130 c_u_x999_ -0.00063734862970044612
    x130 c_u_x1000_ -0.00063734862970044612
    x130 c_u_x1001_ -0.00063734862970044612
    x132 c_u_x663_ 1
    x132 c_u_x664_ 1
    x132 c_u_x665_ 1
    x132 c_e_x903_ 0.55000000000000004
    x132 c_l_x951_ -1
    x132 c_l_x952_ -1
    x132 c_l_x953_ -1
    x132 c_u_x999_ -0.00063734862970044612
    x132 c_u_x1000_ -0.00063734862970044612
    x132 c_u_x1001_ -0.00063734862970044612
    x134 c_u_x664_ 1
    x134 c_u_x665_ 1
    x134 c_e_x904_ 0.55000000000000004
    x134 c_l_x952_ -1
    x134 c_l_x953_ -1
    x134 c_u_x1000_ -0.00063734862970044612
    x134 c_u_x1001_ -0.00063734862970044612
    x136 c_u_x665_ 1
    x136 c_e_x905_ 0.55000000000000004
    x136 c_l_x953_ -1
    x136 c_u_x1001_ -0.00063734862970044612
    x138 c_u_x666_ 1
    x138 c_u_x667_ 1
    x138 c_u_x668_ 1
    x138 c_u_x669_ 1
    x138 c_u_x670_ 1
    x138 c_u_x671_ 1
    x138 c_u_x672_ 1
    x138 c_u_x673_ 1
    x138 c_u_x674_ 1
    x138 c_u_x675_ 1
    x138 c_u_x676_ 1
    x138 c_u_x677_ 1
    x138 c_e_x906_ 0.53000000000000003
    x138 c_l_x954_ -1
    x138 c_l_x955_ -1
    x138 c_l_x956_ -1
    x138 c_l_x957_ -1
    x138 c_l_x958_ -1
    x138 c_l_x959_ -1
    x138 c_l_x960_ -1
    x138 c_l_x961_ -1
    x138 c_l_x962_ -1
    x138 c_l_x963_ -1
    x138 c_l_x964_ -1
    x138 c_l_x965_ -1
    x138 c_u_x1002_ -0.001762114537444934
    x138 c_u_x1003_ -0.001762114537444934
    x138 c_u_x1004_ -0.001762114537444934
    x138 c_u_x1005_ -0.001762114537444934
    x138 c_u_x1006_ -0.001762114537444934
    x138 c_u_x1007_ -0.001762114537444934
    x138 c_u_x1008_ -0.001762114537444934
    x138 c_u_x1009_ -0.001762114537444934
    x138 c_u_x1010_ -0.001762114537444934
    x138 c_u_x1011_ -0.001762114537444934
    x138 c_u_x1012_ -0.001762114537444934
    x138 c_u_x1013_ -0.001762114537444934
    x140 c_u_x667_ 1
    x140 c_u_x668_ 1
    x140 c_u_x669_ 1
    x140 c_u_x670_ 1
    x140 c_u_x671_ 1
    x140 c_u_x672_ 1
    x140 c_u_x673_ 1
    x140 c_u_x674_ 1
    x140 c_u_x675_ 1
    x140 c_u_x676_ 1
    x140 c_u_x677_ 1
    x140 c_e_x907_ 0.53000000000000003
    x140 c_l_x955_ -1
    x140 c_l_x956_ -1
    x140 c_l_x957_ -1
    x140 c_l_x958_ -1
    x140 c_l_x959_ -1
    x140 c_l_x960_ -1
    x140 c_l_x961_ -1
    x140 c_l_x962_ -1
    x140 c_l_x963_ -1
    x140 c_l_x964_ -1
    x140 c_l_x965_ -1
    x140 c_u_x1003_ -0.001762114537444934
    x140 c_u_x1004_ -0.001762114537444934
    x140 c_u_x1005_ -0.001762114537444934
    x140 c_u_x1006_ -0.001762114537444934
    x140 c_u_x1007_ -0.001762114537444934
    x140 c_u_x1008_ -0.001762114537444934
    x140 c_u_x1009_ -0.001762114537444934
    x140 c_u_x1010_ -0.001762114537444934
    x140 c_u_x1011_ -0.001762114537444934
    x140 c_u_x1012_ -0.001762114537444934
    x140 c_u_x1013_ -0.001762114537444934
    x142 c_u_x668_ 1
    x142 c_u_x669_ 1
    x142 c_u_x670_ 1
    x142 c_u_x671_ 1
    x142 c_u_x672_ 1
    x142 c_u_x673_ 1
    x142 c_u_x674_ 1
    x142 c_u_x675_ 1
    x142 c_u_x676_ 1
    x142 c_u_x677_ 1
    x142 c_e_x908_ 0.53000000000000003
    x142 c_l_x956_ -1
    x142 c_l_x957_ -1
    x142 c_l_x958_ -1
    x142 c_l_x959_ -1
    x142 c_l_x960_ -1
    x142 c_l_x961_ -1
    x142 c_l_x962_ -1
    x142 c_l_x963_ -1
    x142 c_l_x964_ -1
    x142 c_l_x965_ -1
    x142 c_u_x1004_ -0.001762114537444934
    x142 c_u_x1005_ -0.001762114537444934
    x142 c_u_x1006_ -0.001762114537444934
    x142 c_u_x1007_ -0.001762114537444934
    x142 c_u_x1008_ -0.001762114537444934
    x142 c_u_x1009_ -0.001762114537444934
    x142 c_u_x1010_ -0.001762114537444934
    x142 c_u_x1011_ -0.001762114537444934
    x142 c_u_x1012_ -0.001762114537444934
    x142 c_u_x1013_ -0.001762114537444934
    x144 c_u_x669_ 1
    x144 c_u_x670_ 1
    x144 c_u_x671_ 1
    x144 c_u_x672_ 1
    x144 c_u_x673_ 1
    x144 c_u_x674_ 1
    x144 c_u_x675_ 1
    x144 c_u_x676_ 1
    x144 c_u_x677_ 1
    x144 c_e_x909_ 0.53000000000000003
    x144 c_l_x957_ -1
    x144 c_l_x958_ -1
    x144 c_l_x959_ -1
    x144 c_l_x960_ -1
    x144 c_l_x961_ -1
    x144 c_l_x962_ -1
    x144 c_l_x963_ -1
    x144 c_l_x964_ -1
    x144 c_l_x965_ -1
    x144 c_u_x1005_ -0.001762114537444934
    x144 c_u_x1006_ -0.001762114537444934
    x144 c_u_x1007_ -0.001762114537444934
    x144 c_u_x1008_ -0.001762114537444934
    x144 c_u_x1009_ -0.001762114537444934
    x144 c_u_x1010_ -0.001762114537444934
    x144 c_u_x1011_ -0.001762114537444934
    x144 c_u_x1012_ -0.001762114537444934
    x144 c_u_x1013_ -0.001762114537444934
    x146 c_u_x670_ 1
    x146 c_u_x671_ 1
    x146 c_u_x672_ 1
    x146 c_u_x673_ 1
    x146 c_u_x674_ 1
    x146 c_u_x675_ 1
    x146 c_u_x676_ 1
    x146 c_u_x677_ 1
    x146 c_e_x910_ 0.53000000000000003
    x146 c_l_x958_ -1
    x146 c_l_x959_ -1
    x146 c_l_x960_ -1
    x146 c_l_x961_ -1
    x146 c_l_x962_ -1
    x146 c_l_x963_ -1
    x146 c_l_x964_ -1
    x146 c_l_x965_ -1
    x146 c_u_x1006_ -0.001762114537444934
    x146 c_u_x1007_ -0.001762114537444934
    x146 c_u_x1008_ -0.001762114537444934
    x146 c_u_x1009_ -0.001762114537444934
    x146 c_u_x1010_ -0.001762114537444934
    x146 c_u_x1011_ -0.001762114537444934
    x146 c_u_x1012_ -0.001762114537444934
    x146 c_u_x1013_ -0.001762114537444934
    x148 c_u_x671_ 1
    x148 c_u_x672_ 1
    x148 c_u_x673_ 1
    x148 c_u_x674_ 1
    x148 c_u_x675_ 1
    x148 c_u_x676_ 1
    x148 c_u_x677_ 1
    x148 c_e_x911_ 0.53000000000000003
    x148 c_l_x959_ -1
    x148 c_l_x960_ -1
    x148 c_l_x961_ -1
    x148 c_l_x962_ -1
    x148 c_l_x963_ -1
    x148 c_l_x964_ -1
    x148 c_l_x965_ -1
    x148 c_u_x1007_ -0.001762114537444934
    x148 c_u_x1008_ -0.001762114537444934
    x148 c_u_x1009_ -0.001762114537444934
    x148 c_u_x1010_ -0.001762114537444934
    x148 c_u_x1011_ -0.001762114537444934
    x148 c_u_x1012_ -0.001762114537444934
    x148 c_u_x1013_ -0.001762114537444934
    x150 c_u_x672_ 1
    x150 c_u_x673_ 1
    x150 c_u_x674_ 1
    x150 c_u_x675_ 1
    x150 c_u_x676_ 1
    x150 c_u_x677_ 1
    x150 c_e_x912_ 0.53000000000000003
    x150 c_l_x960_ -1
    x150 c_l_x961_ -1
    x150 c_l_x962_ -1
    x150 c_l_x963_ -1
    x150 c_l_x964_ -1
    x150 c_l_x965_ -1
    x150 c_u_x1008_ -0.001762114537444934
    x150 c_u_x1009_ -0.001762114537444934
    x150 c_u_x1010_ -0.001762114537444934
    x150 c_u_x1011_ -0.001762114537444934
    x150 c_u_x1012_ -0.001762114537444934
    x150 c_u_x1013_ -0.001762114537444934
    x152 c_u_x673_ 1
    x152 c_u_x674_ 1
    x152 c_u_x675_ 1
    x152 c_u_x676_ 1
    x152 c_u_x677_ 1
    x152 c_e_x913_ 0.53000000000000003
    x152 c_l_x961_ -1
    x152 c_l_x962_ -1
    x152 c_l_x963_ -1
    x152 c_l_x964_ -1
    x152 c_l_x965_ -1
    x152 c_u_x1009_ -0.001762114537444934
    x152 c_u_x1010_ -0.001762114537444934
    x152 c_u_x1011_ -0.001762114537444934
    x152 c_u_x1012_ -0.001762114537444934
    x152 c_u_x1013_ -0.001762114537444934
    x154 c_u_x674_ 1
    x154 c_u_x675_ 1
    x154 c_u_x676_ 1
    x154 c_u_x677_ 1
    x154 c_e_x914_ 0.53000000000000003
    x154 c_l_x962_ -1
    x154 c_l_x963_ -1
    x154 c_l_x964_ -1
    x154 c_l_x965_ -1
    x154 c_u_x1010_ -0.001762114537444934
    x154 c_u_x1011_ -0.001762114537444934
    x154 c_u_x1012_ -0.001762114537444934
    x154 c_u_x1013_ -0.001762114537444934
    x156 c_u_x675_ 1
    x156 c_u_x676_ 1
    x156 c_u_x677_ 1
    x156 c_e_x915_ 0.53000000000000003
    x156 c_l_x963_ -1
    x156 c_l_x964_ -1
    x156 c_l_x965_ -1
    x156 c_u_x1011_ -0.001762114537444934
    x156 c_u_x1012_ -0.001762114537444934
    x156 c_u_x1013_ -0.001762114537444934
    x158 c_u_x676_ 1
    x158 c_u_x677_ 1
    x158 c_e_x916_ 0.53000000000000003
    x158 c_l_x964_ -1
    x158 c_l_x965_ -1
    x158 c_u_x1012_ -0.001762114537444934
    x158 c_u_x1013_ -0.001762114537444934
    x160 c_u_x677_ 1
    x160 c_e_x917_ 0.53000000000000003
    x160 c_l_x965_ -1
    x160 c_u_x1013_ -0.001762114537444934
    x162 c_u_x678_ 1
    x162 c_u_x679_ 1
    x162 c_u_x680_ 1
    x162 c_u_x681_ 1
    x162 c_u_x682_ 1
    x162 c_u_x683_ 1
    x162 c_u_x684_ 1
    x162 c_u_x685_ 1
    x162 c_u_x686_ 1
    x162 c_u_x687_ 1
    x162 c_u_x688_ 1
    x162 c_u_x689_ 1
    x162 c_e_x918_ 0.64000000000000001
    x162 c_l_x966_ -1
    x162 c_l_x967_ -1
    x162 c_l_x968_ -1
    x162 c_l_x969_ -1
    x162 c_l_x970_ -1
    x162 c_l_x971_ -1
    x162 c_l_x972_ -1
    x162 c_l_x973_ -1
    x162 c_l_x974_ -1
    x162 c_l_x975_ -1
    x162 c_l_x976_ -1
    x162 c_l_x977_ -1
    x162 c_u_x1014_ -0.00051282051282051282
    x162 c_u_x1015_ -0.00051282051282051282
    x162 c_u_x1016_ -0.00051282051282051282
    x162 c_u_x1017_ -0.00051282051282051282
    x162 c_u_x1018_ -0.00051282051282051282
    x162 c_u_x1019_ -0.00051282051282051282
    x162 c_u_x1020_ -0.00051282051282051282
    x162 c_u_x1021_ -0.00051282051282051282
    x162 c_u_x1022_ -0.00051282051282051282
    x162 c_u_x1023_ -0.00051282051282051282
    x162 c_u_x1024_ -0.00051282051282051282
    x162 c_u_x1025_ -0.00051282051282051282
    x164 c_u_x679_ 1
    x164 c_u_x680_ 1
    x164 c_u_x681_ 1
    x164 c_u_x682_ 1
    x164 c_u_x683_ 1
    x164 c_u_x684_ 1
    x164 c_u_x685_ 1
    x164 c_u_x686_ 1
    x164 c_u_x687_ 1
    x164 c_u_x688_ 1
    x164 c_u_x689_ 1
    x164 c_e_x919_ 0.64000000000000001
    x164 c_l_x967_ -1
    x164 c_l_x968_ -1
    x164 c_l_x969_ -1
    x164 c_l_x970_ -1
    x164 c_l_x971_ -1
    x164 c_l_x972_ -1
    x164 c_l_x973_ -1
    x164 c_l_x974_ -1
    x164 c_l_x975_ -1
    x164 c_l_x976_ -1
    x164 c_l_x977_ -1
    x164 c_u_x1015_ -0.00051282051282051282
    x164 c_u_x1016_ -0.00051282051282051282
    x164 c_u_x1017_ -0.00051282051282051282
    x164 c_u_x1018_ -0.00051282051282051282
    x164 c_u_x1019_ -0.00051282051282051282
    x164 c_u_x1020_ -0.00051282051282051282
    x164 c_u_x1021_ -0.00051282051282051282
    x164 c_u_x1022_ -0.00051282051282051282
    x164 c_u_x1023_ -0.00051282051282051282
    x164 c_u_x1024_ -0.00051282051282051282
    x164 c_u_x1025_ -0.00051282051282051282
    x166 c_u_x680_ 1
    x166 c_u_x681_ 1
    x166 c_u_x682_ 1
    x166 c_u_x683_ 1
    x166 c_u_x684_ 1
    x166 c_u_x685_ 1
    x166 c_u_x686_ 1
    x166 c_u_x687_ 1
    x166 c_u_x688_ 1
    x166 c_u_x689_ 1
    x166 c_e_x920_ 0.64000000000000001
    x166 c_l_x968_ -1
    x166 c_l_x969_ -1
    x166 c_l_x970_ -1
    x166 c_l_x971_ -1
    x166 c_l_x972_ -1
    x166 c_l_x973_ -1
    x166 c_l_x974_ -1
    x166 c_l_x975_ -1
    x166 c_l_x976_ -1
    x166 c_l_x977_ -1
    x166 c_u_x1016_ -0.00051282051282051282
    x166 c_u_x1017_ -0.00051282051282051282
    x166 c_u_x1018_ -0.00051282051282051282
    x166 c_u_x1019_ -0.00051282051282051282
    x166 c_u_x1020_ -0.00051282051282051282
    x166 c_u_x1021_ -0.00051282051282051282
    x166 c_u_x1022_ -0.00051282051282051282
    x166 c_u_x1023_ -0.00051282051282051282
    x166 c_u_x1024_ -0.00051282051282051282
    x166 c_u_x1025_ -0.00051282051282051282
    x168 c_u_x681_ 1
    x168 c_u_x682_ 1
    x168 c_u_x683_ 1
    x168 c_u_x684_ 1
    x168 c_u_x685_ 1
    x168 c_u_x686_ 1
    x168 c_u_x687_ 1
    x168 c_u_x688_ 1
    x168 c_u_x689_ 1
    x168 c_e_x921_ 0.64000000000000001
    x168 c_l_x969_ -1
    x168 c_l_x970_ -1
    x168 c_l_x971_ -1
    x168 c_l_x972_ -1
    x168 c_l_x973_ -1
    x168 c_l_x974_ -1
    x168 c_l_x975_ -1
    x168 c_l_x976_ -1
    x168 c_l_x977_ -1
    x168 c_u_x1017_ -0.00051282051282051282
    x168 c_u_x1018_ -0.00051282051282051282
    x168 c_u_x1019_ -0.00051282051282051282
    x168 c_u_x1020_ -0.00051282051282051282
    x168 c_u_x1021_ -0.00051282051282051282
    x168 c_u_x1022_ -0.00051282051282051282
    x168 c_u_x1023_ -0.00051282051282051282
    x168 c_u_x1024_ -0.00051282051282051282
    x168 c_u_x1025_ -0.00051282051282051282
    x170 c_u_x682_ 1
    x170 c_u_x683_ 1
    x170 c_u_x684_ 1
    x170 c_u_x685_ 1
    x170 c_u_x686_ 1
    x170 c_u_x687_ 1
    x170 c_u_x688_ 1
    x170 c_u_x689_ 1
    x170 c_e_x922_ 0.64000000000000001
    x170 c_l_x970_ -1
    x170 c_l_x971_ -1
    x170 c_l_x972_ -1
    x170 c_l_x973_ -1
    x170 c_l_x974_ -1
    x170 c_l_x975_ -1
    x170 c_l_x976_ -1
    x170 c_l_x977_ -1
    x170 c_u_x1018_ -0.00051282051282051282
    x170 c_u_x1019_ -0.00051282051282051282
    x170 c_u_x1020_ -0.00051282051282051282
    x170 c_u_x1021_ -0.00051282051282051282
    x170 c_u_x1022_ -0.00051282051282051282
    x170 c_u_x1023_ -0.00051282051282051282
    x170 c_u_x1024_ -0.00051282051282051282
    x170 c_u_x1025_ -0.00051282051282051282
    x172 c_u_x683_ 1
    x172 c_u_x684_ 1
    x172 c_u_x685_ 1
    x172 c_u_x686_ 1
    x172 c_u_x687_ 1
    x172 c_u_x688_ 1
    x172 c_u_x689_ 1
    x172 c_e_x923_ 0.64000000000000001
    x172 c_l_x971_ -1
    x172 c_l_x972_ -1
    x172 c_l_x973_ -1
    x172 c_l_x974_ -1
    x172 c_l_x975_ -1
    x172 c_l_x976_ -1
    x172 c_l_x977_ -1
    x172 c_u_x1019_ -0.00051282051282051282
    x172 c_u_x1020_ -0.00051282051282051282
    x172 c_u_x1021_ -0.00051282051282051282
    x172 c_u_x1022_ -0.00051282051282051282
    x172 c_u_x1023_ -0.00051282051282051282
    x172 c_u_x1024_ -0.00051282051282051282
    x172 c_u_x1025_ -0.00051282051282051282
    x174 c_u_x684_ 1
    x174 c_u_x685_ 1
    x174 c_u_x686_ 1
    x174 c_u_x687_ 1
    x174 c_u_x688_ 1
    x174 c_u_x689_ 1
    x174 c_e_x924_ 0.64000000000000001
    x174 c_l_x972_ -1
    x174 c_l_x973_ -1
    x174 c_l_x974_ -1
    x174 c_l_x975_ -1
    x174 c_l_x976_ -1
    x174 c_l_x977_ -1
    x174 c_u_x1020_ -0.00051282051282051282
    x174 c_u_x1021_ -0.00051282051282051282
    x174 c_u_x1022_ -0.00051282051282051282
    x174 c_u_x1023_ -0.00051282051282051282
    x174 c_u_x1024_ -0.00051282051282051282
    x174 c_u_x1025_ -0.00051282051282051282
    x176 c_u_x685_ 1
    x176 c_u_x686_ 1
    x176 c_u_x687_ 1
    x176 c_u_x688_ 1
    x176 c_u_x689_ 1
    x176 c_e_x925_ 0.64000000000000001
    x176 c_l_x973_ -1
    x176 c_l_x974_ -1
    x176 c_l_x975_ -1
    x176 c_l_x976_ -1
    x176 c_l_x977_ -1
    x176 c_u_x1021_ -0.00051282051282051282
    x176 c_u_x1022_ -0.00051282051282051282
    x176 c_u_x1023_ -0.00051282051282051282
    x176 c_u_x1024_ -0.00051282051282051282
    x176 c_u_x1025_ -0.00051282051282051282
    x178 c_u_x686_ 1
    x178 c_u_x687_ 1
    x178 c_u_x688_ 1
    x178 c_u_x689_ 1
    x178 c_e_x926_ 0.64000000000000001
    x178 c_l_x974_ -1
    x178 c_l_x975_ -1
    x178 c_l_x976_ -1
    x178 c_l_x977_ -1
    x178 c_u_x1022_ -0.00051282051282051282
    x178 c_u_x1023_ -0.00051282051282051282
    x178 c_u_x1024_ -0.00051282051282051282
    x178 c_u_x1025_ -0.00051282051282051282
    x180 c_u_x687_ 1
    x180 c_u_x688_ 1
    x180 c_u_x689_ 1
    x180 c_e_x927_ 0.64000000000000001
    x180 c_l_x975_ -1
    x180 c_l_x976_ -1
    x180 c_l_x977_ -1
    x180 c_u_x1023_ -0.00051282051282051282
    x180 c_u_x1024_ -0.00051282051282051282
    x180 c_u_x1025_ -0.00051282051282051282
    x182 c_u_x688_ 1
    x182 c_u_x689_ 1
    x182 c_e_x928_ 0.64000000000000001
    x182 c_l_x976_ -1
    x182 c_l_x977_ -1
    x182 c_u_x1024_ -0.00051282051282051282
    x182 c_u_x1025_ -0.00051282051282051282
    x184 c_u_x689_ 1
    x184 c_e_x929_ 0.64000000000000001
    x184 c_l_x977_ -1
    x184 c_u_x1025_ -0.00051282051282051282
    x186 c_u_x690_ 1
    x186 c_u_x691_ 1
    x186 c_u_x692_ 1
    x186 c_u_x693_ 1
    x186 c_u_x694_ 1
    x186 c_u_x695_ 1
    x186 c_u_x696_ 1
    x186 c_u_x697_ 1
    x186 c_u_x698_ 1
    x186 c_u_x699_ 1
    x186 c_u_x700_ 1
    x186 c_u_x701_ 1
    x186 c_e_x930_ 0.90000000000000002
    x186 c_l_x978_ -1
    x186 c_l_x979_ -1
    x186 c_l_x980_ -1
    x186 c_l_x981_ -1
    x186 c_l_x982_ -1
    x186 c_l_x983_ -1
    x186 c_l_x984_ -1
    x186 c_l_x985_ -1
    x186 c_l_x986_ -1
    x186 c_l_x987_ -1
    x186 c_l_x988_ -1
    x186 c_l_x989_ -1
    x186 c_u_x1026_ -0.00070821529745042496
    x186 c_u_x1027_ -0.00070821529745042496
    x186 c_u_x1028_ -0.00070821529745042496
    x186 c_u_x1029_ -0.00070821529745042496
    x186 c_u_x1030_ -0.00070821529745042496
    x186 c_u_x1031_ -0.00070821529745042496
    x186 c_u_x1032_ -0.00070821529745042496
    x186 c_u_x1033_ -0.00070821529745042496
    x186 c_u_x1034_ -0.00070821529745042496
    x186 c_u_x1035_ -0.00070821529745042496
    x186 c_u_x1036_ -0.00070821529745042496
    x186 c_u_x1037_ -0.00070821529745042496
    x188 c_u_x691_ 1
    x188 c_u_x692_ 1
    x188 c_u_x693_ 1
    x188 c_u_x694_ 1
    x188 c_u_x695_ 1
    x188 c_u_x696_ 1
    x188 c_u_x697_ 1
    x188 c_u_x698_ 1
    x188 c_u_x699_ 1
    x188 c_u_x700_ 1
    x188 c_u_x701_ 1
    x188 c_e_x931_ 0.90000000000000002
    x188 c_l_x979_ -1
    x188 c_l_x980_ -1
    x188 c_l_x981_ -1
    x188 c_l_x982_ -1
    x188 c_l_x983_ -1
    x188 c_l_x984_ -1
    x188 c_l_x985_ -1
    x188 c_l_x986_ -1
    x188 c_l_x987_ -1
    x188 c_l_x988_ -1
    x188 c_l_x989_ -1
    x188 c_u_x1027_ -0.00070821529745042496
    x188 c_u_x1028_ -0.00070821529745042496
    x188 c_u_x1029_ -0.00070821529745042496
    x188 c_u_x1030_ -0.00070821529745042496
    x188 c_u_x1031_ -0.00070821529745042496
    x188 c_u_x1032_ -0.00070821529745042496
    x188 c_u_x1033_ -0.00070821529745042496
    x188 c_u_x1034_ -0.00070821529745042496
    x188 c_u_x1035_ -0.00070821529745042496
    x188 c_u_x1036_ -0.00070821529745042496
    x188 c_u_x1037_ -0.00070821529745042496
    x190 c_u_x692_ 1
    x190 c_u_x693_ 1
    x190 c_u_x694_ 1
    x190 c_u_x695_ 1
    x190 c_u_x696_ 1
    x190 c_u_x697_ 1
    x190 c_u_x698_ 1
    x190 c_u_x699_ 1
    x190 c_u_x700_ 1
    x190 c_u_x701_ 1
    x190 c_e_x932_ 0.90000000000000002
    x190 c_l_x980_ -1
    x190 c_l_x981_ -1
    x190 c_l_x982_ -1
    x190 c_l_x983_ -1
    x190 c_l_x984_ -1
    x190 c_l_x985_ -1
    x190 c_l_x986_ -1
    x190 c_l_x987_ -1
    x190 c_l_x988_ -1
    x190 c_l_x989_ -1
    x190 c_u_x1028_ -0.00070821529745042496
    x190 c_u_x1029_ -0.00070821529745042496
    x190 c_u_x1030_ -0.00070821529745042496
    x190 c_u_x1031_ -0.00070821529745042496
    x190 c_u_x1032_ -0.00070821529745042496
    x190 c_u_x1033_ -0.00070821529745042496
    x190 c_u_x1034_ -0.00070821529745042496
    x190 c_u_x1035_ -0.00070821529745042496
    x190 c_u_x1036_ -0.00070821529745042496
    x190 c_u_x1037_ -0.00070821529745042496
    x192 c_u_x693_ 1
    x192 c_u_x694_ 1
    x192 c_u_x695_ 1
    x192 c_u_x696_ 1
    x192 c_u_x697_ 1
    x192 c_u_x698_ 1
    x192 c_u_x699_ 1
    x192 c_u_x700_ 1
    x192 c_u_x701_ 1
    x192 c_e_x933_ 0.90000000000000002
    x192 c_l_x981_ -1
    x192 c_l_x982_ -1
    x192 c_l_x983_ -1
    x192 c_l_x984_ -1
    x192 c_l_x985_ -1
    x192 c_l_x986_ -1
    x192 c_l_x987_ -1
    x192 c_l_x988_ -1
    x192 c_l_x989_ -1
    x192 c_u_x1029_ -0.00070821529745042496
    x192 c_u_x1030_ -0.00070821529745042496
    x192 c_u_x1031_ -0.00070821529745042496
    x192 c_u_x1032_ -0.00070821529745042496
    x192 c_u_x1033_ -0.00070821529745042496
    x192 c_u_x1034_ -0.00070821529745042496
    x192 c_u_x1035_ -0.00070821529745042496
    x192 c_u_x1036_ -0.00070821529745042496
    x192 c_u_x1037_ -0.00070821529745042496
    x194 c_u_x694_ 1
    x194 c_u_x695_ 1
    x194 c_u_x696_ 1
    x194 c_u_x697_ 1
    x194 c_u_x698_ 1
    x194 c_u_x699_ 1
    x194 c_u_x700_ 1
    x194 c_u_x701_ 1
    x194 c_e_x934_ 0.90000000000000002
    x194 c_l_x982_ -1
    x194 c_l_x983_ -1
    x194 c_l_x984_ -1
    x194 c_l_x985_ -1
    x194 c_l_x986_ -1
    x194 c_l_x987_ -1
    x194 c_l_x988_ -1
    x194 c_l_x989_ -1
    x194 c_u_x1030_ -0.00070821529745042496
    x194 c_u_x1031_ -0.00070821529745042496
    x194 c_u_x1032_ -0.00070821529745042496
    x194 c_u_x1033_ -0.00070821529745042496
    x194 c_u_x1034_ -0.00070821529745042496
    x194 c_u_x1035_ -0.00070821529745042496
    x194 c_u_x1036_ -0.00070821529745042496
    x194 c_u_x1037_ -0.00070821529745042496
    x196 c_u_x695_ 1
    x196 c_u_x696_ 1
    x196 c_u_x697_ 1
    x196 c_u_x698_ 1
    x196 c_u_x699_ 1
    x196 c_u_x700_ 1
    x196 c_u_x701_ 1
    x196 c_e_x935_ 0.90000000000000002
    x196 c_l_x983_ -1
    x196 c_l_x984_ -1
    x196 c_l_x985_ -1
    x196 c_l_x986_ -1
    x196 c_l_x987_ -1
    x196 c_l_x988_ -1
    x196 c_l_x989_ -1
    x196 c_u_x1031_ -0.00070821529745042496
    x196 c_u_x1032_ -0.00070821529745042496
    x196 c_u_x1033_ -0.00070821529745042496
    x196 c_u_x1034_ -0.00070821529745042496
    x196 c_u_x1035_ -0.00070821529745042496
    x196 c_u_x1036_ -0.00070821529745042496
    x196 c_u_x1037_ -0.00070821529745042496
    x198 c_u_x696_ 1
    x198 c_u_x697_ 1
    x198 c_u_x698_ 1
    x198 c_u_x699_ 1
    x198 c_u_x700_ 1
    x198 c_u_x701_ 1
    x198 c_e_x936_ 0.90000000000000002
    x198 c_l_x984_ -1
    x198 c_l_x985_ -1
    x198 c_l_x986_ -1
    x198 c_l_x987_ -1
    x198 c_l_x988_ -1
    x198 c_l_x989_ -1
    x198 c_u_x1032_ -0.00070821529745042496
    x198 c_u_x1033_ -0.00070821529745042496
    x198 c_u_x1034_ -0.00070821529745042496
    x198 c_u_x1035_ -0.00070821529745042496
    x198 c_u_x1036_ -0.00070821529745042496
    x198 c_u_x1037_ -0.00070821529745042496
    x200 c_u_x697_ 1
    x200 c_u_x698_ 1
    x200 c_u_x699_ 1
    x200 c_u_x700_ 1
    x200 c_u_x701_ 1
    x200 c_e_x937_ 0.90000000000000002
    x200 c_l_x985_ -1
    x200 c_l_x986_ -1
    x200 c_l_x987_ -1
    x200 c_l_x988_ -1
    x200 c_l_x989_ -1
    x200 c_u_x1033_ -0.00070821529745042496
    x200 c_u_x1034_ -0.00070821529745042496
    x200 c_u_x1035_ -0.00070821529745042496
    x200 c_u_x1036_ -0.00070821529745042496
    x200 c_u_x1037_ -0.00070821529745042496
    x202 c_u_x698_ 1
    x202 c_u_x699_ 1
    x202 c_u_x700_ 1
    x202 c_u_x701_ 1
    x202 c_e_x938_ 0.90000000000000002
    x202 c_l_x986_ -1
    x202 c_l_x987_ -1
    x202 c_l_x988_ -1
    x202 c_l_x989_ -1
    x202 c_u_x1034_ -0.00070821529745042496
    x202 c_u_x1035_ -0.00070821529745042496
    x202 c_u_x1036_ -0.00070821529745042496
    x202 c_u_x1037_ -0.00070821529745042496
    x204 c_u_x699_ 1
    x204 c_u_x700_ 1
    x204 c_u_x701_ 1
    x204 c_e_x939_ 0.90000000000000002
    x204 c_l_x987_ -1
    x204 c_l_x988_ -1
    x204 c_l_x989_ -1
    x204 c_u_x1035_ -0.00070821529745042496
    x204 c_u_x1036_ -0.00070821529745042496
    x204 c_u_x1037_ -0.00070821529745042496
    x206 c_u_x700_ 1
    x206 c_u_x701_ 1
    x206 c_e_x940_ 0.90000000000000002
    x206 c_l_x988_ -1
    x206 c_l_x989_ -1
    x206 c_u_x1036_ -0.00070821529745042496
    x206 c_u_x1037_ -0.00070821529745042496
    x208 c_u_x701_ 1
    x208 c_e_x941_ 0.90000000000000002
    x208 c_l_x989_ -1
    x208 c_u_x1037_ -0.00070821529745042496
    x210 c_u_x702_ 1
    x210 c_u_x703_ 1
    x210 c_u_x704_ 1
    x210 c_u_x705_ 1
    x210 c_u_x706_ 1
    x210 c_u_x707_ 1
    x210 c_u_x708_ 1
    x210 c_u_x709_ 1
    x210 c_u_x710_ 1
    x210 c_u_x711_ 1
    x210 c_u_x712_ 1
    x210 c_u_x713_ 1
    x210 c_e_x894_ 0.51000000000000001
    x210 c_l_x942_ -1
    x210 c_l_x943_ -1
    x210 c_l_x944_ -1
    x210 c_l_x945_ -1
    x210 c_l_x946_ -1
    x210 c_l_x947_ -1
    x210 c_l_x948_ -1
    x210 c_l_x949_ -1
    x210 c_l_x950_ -1
    x210 c_l_x951_ -1
    x210 c_l_x952_ -1
    x210 c_l_x953_ -1
    x210 c_u_x990_ -0.0027855153203342618
    x210 c_u_x991_ -0.0027855153203342618
    x210 c_u_x992_ -0.0027855153203342618
    x210 c_u_x993_ -0.0027855153203342618
    x210 c_u_x994_ -0.0027855153203342618
    x210 c_u_x995_ -0.0027855153203342618
    x210 c_u_x996_ -0.0027855153203342618
    x210 c_u_x997_ -0.0027855153203342618
    x210 c_u_x998_ -0.0027855153203342618
    x210 c_u_x999_ -0.0027855153203342618
    x210 c_u_x1000_ -0.0027855153203342618
    x210 c_u_x1001_ -0.0027855153203342618
    x212 c_u_x703_ 1
    x212 c_u_x704_ 1
    x212 c_u_x705_ 1
    x212 c_u_x706_ 1
    x212 c_u_x707_ 1
    x212 c_u_x708_ 1
    x212 c_u_x709_ 1
    x212 c_u_x710_ 1
    x212 c_u_x711_ 1
    x212 c_u_x712_ 1
    x212 c_u_x713_ 1
    x212 c_e_x895_ 0.51000000000000001
    x212 c_l_x943_ -1
    x212 c_l_x944_ -1
    x212 c_l_x945_ -1
    x212 c_l_x946_ -1
    x212 c_l_x947_ -1
    x212 c_l_x948_ -1
    x212 c_l_x949_ -1
    x212 c_l_x950_ -1
    x212 c_l_x951_ -1
    x212 c_l_x952_ -1
    x212 c_l_x953_ -1
    x212 c_u_x991_ -0.0027855153203342618
    x212 c_u_x992_ -0.0027855153203342618
    x212 c_u_x993_ -0.0027855153203342618
    x212 c_u_x994_ -0.0027855153203342618
    x212 c_u_x995_ -0.0027855153203342618
    x212 c_u_x996_ -0.0027855153203342618
    x212 c_u_x997_ -0.0027855153203342618
    x212 c_u_x998_ -0.0027855153203342618
    x212 c_u_x999_ -0.0027855153203342618
    x212 c_u_x1000_ -0.0027855153203342618
    x212 c_u_x1001_ -0.0027855153203342618
    x214 c_u_x704_ 1
    x214 c_u_x705_ 1
    x214 c_u_x706_ 1
    x214 c_u_x707_ 1
    x214 c_u_x708_ 1
    x214 c_u_x709_ 1
    x214 c_u_x710_ 1
    x214 c_u_x711_ 1
    x214 c_u_x712_ 1
    x214 c_u_x713_ 1
    x214 c_e_x896_ 0.51000000000000001
    x214 c_l_x944_ -1
    x214 c_l_x945_ -1
    x214 c_l_x946_ -1
    x214 c_l_x947_ -1
    x214 c_l_x948_ -1
    x214 c_l_x949_ -1
    x214 c_l_x950_ -1
    x214 c_l_x951_ -1
    x214 c_l_x952_ -1
    x214 c_l_x953_ -1
    x214 c_u_x992_ -0.0027855153203342618
    x214 c_u_x993_ -0.0027855153203342618
    x214 c_u_x994_ -0.0027855153203342618
    x214 c_u_x995_ -0.0027855153203342618
    x214 c_u_x996_ -0.0027855153203342618
    x214 c_u_x997_ -0.0027855153203342618
    x214 c_u_x998_ -0.0027855153203342618
    x214 c_u_x999_ -0.0027855153203342618
    x214 c_u_x1000_ -0.0027855153203342618
    x214 c_u_x1001_ -0.0027855153203342618
    x216 c_u_x705_ 1
    x216 c_u_x706_ 1
    x216 c_u_x707_ 1
    x216 c_u_x708_ 1
    x216 c_u_x709_ 1
    x216 c_u_x710_ 1
    x216 c_u_x711_ 1
    x216 c_u_x712_ 1
    x216 c_u_x713_ 1
    x216 c_e_x897_ 0.51000000000000001
    x216 c_l_x945_ -1
    x216 c_l_x946_ -1
    x216 c_l_x947_ -1
    x216 c_l_x948_ -1
    x216 c_l_x949_ -1
    x216 c_l_x950_ -1
    x216 c_l_x951_ -1
    x216 c_l_x952_ -1
    x216 c_l_x953_ -1
    x216 c_u_x993_ -0.0027855153203342618
    x216 c_u_x994_ -0.0027855153203342618
    x216 c_u_x995_ -0.0027855153203342618
    x216 c_u_x996_ -0.0027855153203342618
    x216 c_u_x997_ -0.0027855153203342618
    x216 c_u_x998_ -0.0027855153203342618
    x216 c_u_x999_ -0.0027855153203342618
    x216 c_u_x1000_ -0.0027855153203342618
    x216 c_u_x1001_ -0.0027855153203342618
    x218 c_u_x706_ 1
    x218 c_u_x707_ 1
    x218 c_u_x708_ 1
    x218 c_u_x709_ 1
    x218 c_u_x710_ 1
    x218 c_u_x711_ 1
    x218 c_u_x712_ 1
    x218 c_u_x713_ 1
    x218 c_e_x898_ 0.51000000000000001
    x218 c_l_x946_ -1
    x218 c_l_x947_ -1
    x218 c_l_x948_ -1
    x218 c_l_x949_ -1
    x218 c_l_x950_ -1
    x218 c_l_x951_ -1
    x218 c_l_x952_ -1
    x218 c_l_x953_ -1
    x218 c_u_x994_ -0.0027855153203342618
    x218 c_u_x995_ -0.0027855153203342618
    x218 c_u_x996_ -0.0027855153203342618
    x218 c_u_x997_ -0.0027855153203342618
    x218 c_u_x998_ -0.0027855153203342618
    x218 c_u_x999_ -0.0027855153203342618
    x218 c_u_x1000_ -0.0027855153203342618
    x218 c_u_x1001_ -0.0027855153203342618
    x220 c_u_x707_ 1
    x220 c_u_x708_ 1
    x220 c_u_x709_ 1
    x220 c_u_x710_ 1
    x220 c_u_x711_ 1
    x220 c_u_x712_ 1
    x220 c_u_x713_ 1
    x220 c_e_x899_ 0.51000000000000001
    x220 c_l_x947_ -1
    x220 c_l_x948_ -1
    x220 c_l_x949_ -1
    x220 c_l_x950_ -1
    x220 c_l_x951_ -1
    x220 c_l_x952_ -1
    x220 c_l_x953_ -1
    x220 c_u_x995_ -0.0027855153203342618
    x220 c_u_x996_ -0.0027855153203342618
    x220 c_u_x997_ -0.0027855153203342618
    x220 c_u_x998_ -0.0027855153203342618
    x220 c_u_x999_ -0.0027855153203342618
    x220 c_u_x1000_ -0.0027855153203342618
    x220 c_u_x1001_ -0.0027855153203342618
    x222 c_u_x708_ 1
    x222 c_u_x709_ 1
    x222 c_u_x710_ 1
    x222 c_u_x711_ 1
    x222 c_u_x712_ 1
    x222 c_u_x713_ 1
    x222 c_e_x900_ 0.51000000000000001
    x222 c_l_x948_ -1
    x222 c_l_x949_ -1
    x222 c_l_x950_ -1
    x222 c_l_x951_ -1
    x222 c_l_x952_ -1
    x222 c_l_x953_ -1
    x222 c_u_x996_ -0.0027855153203342618
    x222 c_u_x997_ -0.0027855153203342618
    x222 c_u_x998_ -0.0027855153203342618
    x222 c_u_x999_ -0.0027855153203342618
    x222 c_u_x1000_ -0.0027855153203342618
    x222 c_u_x1001_ -0.0027855153203342618
    x224 c_u_x709_ 1
    x224 c_u_x710_ 1
    x224 c_u_x711_ 1
    x224 c_u_x712_ 1
    x224 c_u_x713_ 1
    x224 c_e_x901_ 0.51000000000000001
    x224 c_l_x949_ -1
    x224 c_l_x950_ -1
    x224 c_l_x951_ -1
    x224 c_l_x952_ -1
    x224 c_l_x953_ -1
    x224 c_u_x997_ -0.0027855153203342618
    x224 c_u_x998_ -0.0027855153203342618
    x224 c_u_x999_ -0.0027855153203342618
    x224 c_u_x1000_ -0.0027855153203342618
    x224 c_u_x1001_ -0.0027855153203342618
    x226 c_u_x710_ 1
    x226 c_u_x711_ 1
    x226 c_u_x712_ 1
    x226 c_u_x713_ 1
    x226 c_e_x902_ 0.51000000000000001
    x226 c_l_x950_ -1
    x226 c_l_x951_ -1
    x226 c_l_x952_ -1
    x226 c_l_x953_ -1
    x226 c_u_x998_ -0.0027855153203342618
    x226 c_u_x999_ -0.0027855153203342618
    x226 c_u_x1000_ -0.0027855153203342618
    x226 c_u_x1001_ -0.0027855153203342618
    x228 c_u_x711_ 1
    x228 c_u_x712_ 1
    x228 c_u_x713_ 1
    x228 c_e_x903_ 0.51000000000000001
    x228 c_l_x951_ -1
    x228 c_l_x952_ -1
    x228 c_l_x953_ -1
    x228 c_u_x999_ -0.0027855153203342618
    x228 c_u_x1000_ -0.0027855153203342618
    x228 c_u_x1001_ -0.0027855153203342618
    x230 c_u_x712_ 1
    x230 c_u_x713_ 1
    x230 c_e_x904_ 0.51000000000000001
    x230 c_l_x952_ -1
    x230 c_l_x953_ -1
    x230 c_u_x1000_ -0.0027855153203342618
    x230 c_u_x1001_ -0.0027855153203342618
    x232 c_u_x713_ 1
    x232 c_e_x905_ 0.51000000000000001
    x232 c_l_x953_ -1
    x232 c_u_x1001_ -0.0027855153203342618
    x234 c_u_x714_ 1
    x234 c_u_x715_ 1
    x234 c_u_x716_ 1
    x234 c_u_x717_ 1
    x234 c_u_x718_ 1
    x234 c_u_x719_ 1
    x234 c_u_x720_ 1
    x234 c_u_x721_ 1
    x234 c_u_x722_ 1
    x234 c_u_x723_ 1
    x234 c_u_x724_ 1
    x234 c_u_x725_ 1
    x234 c_e_x906_ 0.73999999999999999
    x234 c_l_x954_ -1
    x234 c_l_x955_ -1
    x234 c_l_x956_ -1
    x234 c_l_x957_ -1
    x234 c_l_x958_ -1
    x234 c_l_x959_ -1
    x234 c_l_x960_ -1
    x234 c_l_x961_ -1
    x234 c_l_x962_ -1
    x234 c_l_x963_ -1
    x234 c_l_x964_ -1
    x234 c_l_x965_ -1
    x234 c_u_x1002_ -0.00069637883008356546
    x234 c_u_x1003_ -0.00069637883008356546
    x234 c_u_x1004_ -0.00069637883008356546
    x234 c_u_x1005_ -0.00069637883008356546
    x234 c_u_x1006_ -0.00069637883008356546
    x234 c_u_x1007_ -0.00069637883008356546
    x234 c_u_x1008_ -0.00069637883008356546
    x234 c_u_x1009_ -0.00069637883008356546
    x234 c_u_x1010_ -0.00069637883008356546
    x234 c_u_x1011_ -0.00069637883008356546
    x234 c_u_x1012_ -0.00069637883008356546
    x234 c_u_x1013_ -0.00069637883008356546
    x236 c_u_x715_ 1
    x236 c_u_x716_ 1
    x236 c_u_x717_ 1
    x236 c_u_x718_ 1
    x236 c_u_x719_ 1
    x236 c_u_x720_ 1
    x236 c_u_x721_ 1
    x236 c_u_x722_ 1
    x236 c_u_x723_ 1
    x236 c_u_x724_ 1
    x236 c_u_x725_ 1
    x236 c_e_x907_ 0.73999999999999999
    x236 c_l_x955_ -1
    x236 c_l_x956_ -1
    x236 c_l_x957_ -1
    x236 c_l_x958_ -1
    x236 c_l_x959_ -1
    x236 c_l_x960_ -1
    x236 c_l_x961_ -1
    x236 c_l_x962_ -1
    x236 c_l_x963_ -1
    x236 c_l_x964_ -1
    x236 c_l_x965_ -1
    x236 c_u_x1003_ -0.00069637883008356546
    x236 c_u_x1004_ -0.00069637883008356546
    x236 c_u_x1005_ -0.00069637883008356546
    x236 c_u_x1006_ -0.00069637883008356546
    x236 c_u_x1007_ -0.00069637883008356546
    x236 c_u_x1008_ -0.00069637883008356546
    x236 c_u_x1009_ -0.00069637883008356546
    x236 c_u_x1010_ -0.00069637883008356546
    x236 c_u_x1011_ -0.00069637883008356546
    x236 c_u_x1012_ -0.00069637883008356546
    x236 c_u_x1013_ -0.00069637883008356546
    x238 c_u_x716_ 1
    x238 c_u_x717_ 1
    x238 c_u_x718_ 1
    x238 c_u_x719_ 1
    x238 c_u_x720_ 1
    x238 c_u_x721_ 1
    x238 c_u_x722_ 1
    x238 c_u_x723_ 1
    x238 c_u_x724_ 1
    x238 c_u_x725_ 1
    x238 c_e_x908_ 0.73999999999999999
    x238 c_l_x956_ -1
    x238 c_l_x957_ -1
    x238 c_l_x958_ -1
    x238 c_l_x959_ -1
    x238 c_l_x960_ -1
    x238 c_l_x961_ -1
    x238 c_l_x962_ -1
    x238 c_l_x963_ -1
    x238 c_l_x964_ -1
    x238 c_l_x965_ -1
    x238 c_u_x1004_ -0.00069637883008356546
    x238 c_u_x1005_ -0.00069637883008356546
    x238 c_u_x1006_ -0.00069637883008356546
    x238 c_u_x1007_ -0.00069637883008356546
    x238 c_u_x1008_ -0.00069637883008356546
    x238 c_u_x1009_ -0.00069637883008356546
    x238 c_u_x1010_ -0.00069637883008356546
    x238 c_u_x1011_ -0.00069637883008356546
    x238 c_u_x1012_ -0.00069637883008356546
    x238 c_u_x1013_ -0.00069637883008356546
    x240 c_u_x717_ 1
    x240 c_u_x718_ 1
    x240 c_u_x719_ 1
    x240 c_u_x720_ 1
    x240 c_u_x721_ 1
    x240 c_u_x722_ 1
    x240 c_u_x723_ 1
    x240 c_u_x724_ 1
    x240 c_u_x725_ 1
    x240 c_e_x909_ 0.73999999999999999
    x240 c_l_x957_ -1
    x240 c_l_x958_ -1
    x240 c_l_x959_ -1
    x240 c_l_x960_ -1
    x240 c_l_x961_ -1
    x240 c_l_x962_ -1
    x240 c_l_x963_ -1
    x240 c_l_x964_ -1
    x240 c_l_x965_ -1
    x240 c_u_x1005_ -0.00069637883008356546
    x240 c_u_x1006_ -0.00069637883008356546
    x240 c_u_x1007_ -0.00069637883008356546
    x240 c_u_x1008_ -0.00069637883008356546
    x240 c_u_x1009_ -0.00069637883008356546
    x240 c_u_x1010_ -0.00069637883008356546
    x240 c_u_x1011_ -0.00069637883008356546
    x240 c_u_x1012_ -0.00069637883008356546
    x240 c_u_x1013_ -0.00069637883008356546
    x242 c_u_x718_ 1
    x242 c_u_x719_ 1
    x242 c_u_x720_ 1
    x242 c_u_x721_ 1
    x242 c_u_x722_ 1
    x242 c_u_x723_ 1
    x242 c_u_x724_ 1
    x242 c_u_x725_ 1
    x242 c_e_x910_ 0.73999999999999999
    x242 c_l_x958_ -1
    x242 c_l_x959_ -1
    x242 c_l_x960_ -1
    x242 c_l_x961_ -1
    x242 c_l_x962_ -1
    x242 c_l_x963_ -1
    x242 c_l_x964_ -1
    x242 c_l_x965_ -1
    x242 c_u_x1006_ -0.00069637883008356546
    x242 c_u_x1007_ -0.00069637883008356546
    x242 c_u_x1008_ -0.00069637883008356546
    x242 c_u_x1009_ -0.00069637883008356546
    x242 c_u_x1010_ -0.00069637883008356546
    x242 c_u_x1011_ -0.00069637883008356546
    x242 c_u_x1012_ -0.00069637883008356546
    x242 c_u_x1013_ -0.00069637883008356546
    x244 c_u_x719_ 1
    x244 c_u_x720_ 1
    x244 c_u_x721_ 1
    x244 c_u_x722_ 1
    x244 c_u_x723_ 1
    x244 c_u_x724_ 1
    x244 c_u_x725_ 1
    x244 c_e_x911_ 0.73999999999999999
    x244 c_l_x959_ -1
    x244 c_l_x960_ -1
    x244 c_l_x961_ -1
    x244 c_l_x962_ -1
    x244 c_l_x963_ -1
    x244 c_l_x964_ -1
    x244 c_l_x965_ -1
    x244 c_u_x1007_ -0.00069637883008356546
    x244 c_u_x1008_ -0.00069637883008356546
    x244 c_u_x1009_ -0.00069637883008356546
    x244 c_u_x1010_ -0.00069637883008356546
    x244 c_u_x1011_ -0.00069637883008356546
    x244 c_u_x1012_ -0.00069637883008356546
    x244 c_u_x1013_ -0.00069637883008356546
    x246 c_u_x720_ 1
    x246 c_u_x721_ 1
    x246 c_u_x722_ 1
    x246 c_u_x723_ 1
    x246 c_u_x724_ 1
    x246 c_u_x725_ 1
    x246 c_e_x912_ 0.73999999999999999
    x246 c_l_x960_ -1
    x246 c_l_x961_ -1
    x246 c_l_x962_ -1
    x246 c_l_x963_ -1
    x246 c_l_x964_ -1
    x246 c_l_x965_ -1
    x246 c_u_x1008_ -0.00069637883008356546
    x246 c_u_x1009_ -0.00069637883008356546
    x246 c_u_x1010_ -0.00069637883008356546
    x246 c_u_x1011_ -0.00069637883008356546
    x246 c_u_x1012_ -0.00069637883008356546
    x246 c_u_x1013_ -0.00069637883008356546
    x248 c_u_x721_ 1
    x248 c_u_x722_ 1
    x248 c_u_x723_ 1
    x248 c_u_x724_ 1
    x248 c_u_x725_ 1
    x248 c_e_x913_ 0.73999999999999999
    x248 c_l_x961_ -1
    x248 c_l_x962_ -1
    x248 c_l_x963_ -1
    x248 c_l_x964_ -1
    x248 c_l_x965_ -1
    x248 c_u_x1009_ -0.00069637883008356546
    x248 c_u_x1010_ -0.00069637883008356546
    x248 c_u_x1011_ -0.00069637883008356546
    x248 c_u_x1012_ -0.00069637883008356546
    x248 c_u_x1013_ -0.00069637883008356546
    x250 c_u_x722_ 1
    x250 c_u_x723_ 1
    x250 c_u_x724_ 1
    x250 c_u_x725_ 1
    x250 c_e_x914_ 0.73999999999999999
    x250 c_l_x962_ -1
    x250 c_l_x963_ -1
    x250 c_l_x964_ -1
    x250 c_l_x965_ -1
    x250 c_u_x1010_ -0.00069637883008356546
    x250 c_u_x1011_ -0.00069637883008356546
    x250 c_u_x1012_ -0.00069637883008356546
    x250 c_u_x1013_ -0.00069637883008356546
    x252 c_u_x723_ 1
    x252 c_u_x724_ 1
    x252 c_u_x725_ 1
    x252 c_e_x915_ 0.73999999999999999
    x252 c_l_x963_ -1
    x252 c_l_x964_ -1
    x252 c_l_x965_ -1
    x252 c_u_x1011_ -0.00069637883008356546
    x252 c_u_x1012_ -0.00069637883008356546
    x252 c_u_x1013_ -0.00069637883008356546
    x254 c_u_x724_ 1
    x254 c_u_x725_ 1
    x254 c_e_x916_ 0.73999999999999999
    x254 c_l_x964_ -1
    x254 c_l_x965_ -1
    x254 c_u_x1012_ -0.00069637883008356546
    x254 c_u_x1013_ -0.00069637883008356546
    x256 c_u_x725_ 1
    x256 c_e_x917_ 0.73999999999999999
    x256 c_l_x965_ -1
    x256 c_u_x1013_ -0.00069637883008356546
    x258 c_u_x726_ 1
    x258 c_u_x727_ 1
    x258 c_u_x728_ 1
    x258 c_u_x729_ 1
    x258 c_u_x730_ 1
    x258 c_u_x731_ 1
    x258 c_u_x732_ 1
    x258 c_u_x733_ 1
    x258 c_u_x734_ 1
    x258 c_u_x735_ 1
    x258 c_u_x736_ 1
    x258 c_u_x737_ 1
    x258 c_e_x918_ 0.62
    x258 c_l_x966_ -1
    x258 c_l_x967_ -1
    x258 c_l_x968_ -1
    x258 c_l_x969_ -1
    x258 c_l_x970_ -1
    x258 c_l_x971_ -1
    x258 c_l_x972_ -1
    x258 c_l_x973_ -1
    x258 c_l_x974_ -1
    x258 c_l_x975_ -1
    x258 c_l_x976_ -1
    x258 c_l_x977_ -1
    x258 c_u_x1014_ -0.00065231572080887146
    x258 c_u_x1015_ -0.00065231572080887146
    x258 c_u_x1016_ -0.00065231572080887146
    x258 c_u_x1017_ -0.00065231572080887146
    x258 c_u_x1018_ -0.00065231572080887146
    x258 c_u_x1019_ -0.00065231572080887146
    x258 c_u_x1020_ -0.00065231572080887146
    x258 c_u_x1021_ -0.00065231572080887146
    x258 c_u_x1022_ -0.00065231572080887146
    x258 c_u_x1023_ -0.00065231572080887146
    x258 c_u_x1024_ -0.00065231572080887146
    x258 c_u_x1025_ -0.00065231572080887146
    x260 c_u_x727_ 1
    x260 c_u_x728_ 1
    x260 c_u_x729_ 1
    x260 c_u_x730_ 1
    x260 c_u_x731_ 1
    x260 c_u_x732_ 1
    x260 c_u_x733_ 1
    x260 c_u_x734_ 1
    x260 c_u_x735_ 1
    x260 c_u_x736_ 1
    x260 c_u_x737_ 1
    x260 c_e_x919_ 0.62
    x260 c_l_x967_ -1
    x260 c_l_x968_ -1
    x260 c_l_x969_ -1
    x260 c_l_x970_ -1
    x260 c_l_x971_ -1
    x260 c_l_x972_ -1
    x260 c_l_x973_ -1
    x260 c_l_x974_ -1
    x260 c_l_x975_ -1
    x260 c_l_x976_ -1
    x260 c_l_x977_ -1
    x260 c_u_x1015_ -0.00065231572080887146
    x260 c_u_x1016_ -0.00065231572080887146
    x260 c_u_x1017_ -0.00065231572080887146
    x260 c_u_x1018_ -0.00065231572080887146
    x260 c_u_x1019_ -0.00065231572080887146
    x260 c_u_x1020_ -0.00065231572080887146
    x260 c_u_x1021_ -0.00065231572080887146
    x260 c_u_x1022_ -0.00065231572080887146
    x260 c_u_x1023_ -0.00065231572080887146
    x260 c_u_x1024_ -0.00065231572080887146
    x260 c_u_x1025_ -0.00065231572080887146
    x262 c_u_x728_ 1
    x262 c_u_x729_ 1
    x262 c_u_x730_ 1
    x262 c_u_x731_ 1
    x262 c_u_x732_ 1
    x262 c_u_x733_ 1
    x262 c_u_x734_ 1
    x262 c_u_x735_ 1
    x262 c_u_x736_ 1
    x262 c_u_x737_ 1
    x262 c_e_x920_ 0.62
    x262 c_l_x968_ -1
    x262 c_l_x969_ -1
    x262 c_l_x970_ -1
    x262 c_l_x971_ -1
    x262 c_l_x972_ -1
    x262 c_l_x973_ -1
    x262 c_l_x974_ -1
    x262 c_l_x975_ -1
    x262 c_l_x976_ -1
    x262 c_l_x977_ -1
    x262 c_u_x1016_ -0.00065231572080887146
    x262 c_u_x1017_ -0.00065231572080887146
    x262 c_u_x1018_ -0.00065231572080887146
    x262 c_u_x1019_ -0.00065231572080887146
    x262 c_u_x1020_ -0.00065231572080887146
    x262 c_u_x1021_ -0.00065231572080887146
    x262 c_u_x1022_ -0.00065231572080887146
    x262 c_u_x1023_ -0.00065231572080887146
    x262 c_u_x1024_ -0.00065231572080887146
    x262 c_u_x1025_ -0.00065231572080887146
    x264 c_u_x729_ 1
    x264 c_u_x730_ 1
    x264 c_u_x731_ 1
    x264 c_u_x732_ 1
    x264 c_u_x733_ 1
    x264 c_u_x734_ 1
    x264 c_u_x735_ 1
    x264 c_u_x736_ 1
    x264 c_u_x737_ 1
    x264 c_e_x921_ 0.62
    x264 c_l_x969_ -1
    x264 c_l_x970_ -1
    x264 c_l_x971_ -1
    x264 c_l_x972_ -1
    x264 c_l_x973_ -1
    x264 c_l_x974_ -1
    x264 c_l_x975_ -1
    x264 c_l_x976_ -1
    x264 c_l_x977_ -1
    x264 c_u_x1017_ -0.00065231572080887146
    x264 c_u_x1018_ -0.00065231572080887146
    x264 c_u_x1019_ -0.00065231572080887146
    x264 c_u_x1020_ -0.00065231572080887146
    x264 c_u_x1021_ -0.00065231572080887146
    x264 c_u_x1022_ -0.00065231572080887146
    x264 c_u_x1023_ -0.00065231572080887146
    x264 c_u_x1024_ -0.00065231572080887146
    x264 c_u_x1025_ -0.00065231572080887146
    x266 c_u_x730_ 1
    x266 c_u_x731_ 1
    x266 c_u_x732_ 1
    x266 c_u_x733_ 1
    x266 c_u_x734_ 1
    x266 c_u_x735_ 1
    x266 c_u_x736_ 1
    x266 c_u_x737_ 1
    x266 c_e_x922_ 0.62
    x266 c_l_x970_ -1
    x266 c_l_x971_ -1
    x266 c_l_x972_ -1
    x266 c_l_x973_ -1
    x266 c_l_x974_ -1
    x266 c_l_x975_ -1
    x266 c_l_x976_ -1
    x266 c_l_x977_ -1
    x266 c_u_x1018_ -0.00065231572080887146
    x266 c_u_x1019_ -0.00065231572080887146
    x266 c_u_x1020_ -0.00065231572080887146
    x266 c_u_x1021_ -0.00065231572080887146
    x266 c_u_x1022_ -0.00065231572080887146
    x266 c_u_x1023_ -0.00065231572080887146
    x266 c_u_x1024_ -0.00065231572080887146
    x266 c_u_x1025_ -0.00065231572080887146
    x268 c_u_x731_ 1
    x268 c_u_x732_ 1
    x268 c_u_x733_ 1
    x268 c_u_x734_ 1
    x268 c_u_x735_ 1
    x268 c_u_x736_ 1
    x268 c_u_x737_ 1
    x268 c_e_x923_ 0.62
    x268 c_l_x971_ -1
    x268 c_l_x972_ -1
    x268 c_l_x973_ -1
    x268 c_l_x974_ -1
    x268 c_l_x975_ -1
    x268 c_l_x976_ -1
    x268 c_l_x977_ -1
    x268 c_u_x1019_ -0.00065231572080887146
    x268 c_u_x1020_ -0.00065231572080887146
    x268 c_u_x1021_ -0.00065231572080887146
    x268 c_u_x1022_ -0.00065231572080887146
    x268 c_u_x1023_ -0.00065231572080887146
    x268 c_u_x1024_ -0.00065231572080887146
    x268 c_u_x1025_ -0.00065231572080887146
    x270 c_u_x732_ 1
    x270 c_u_x733_ 1
    x270 c_u_x734_ 1
    x270 c_u_x735_ 1
    x270 c_u_x736_ 1
    x270 c_u_x737_ 1
    x270 c_e_x924_ 0.62
    x270 c_l_x972_ -1
    x270 c_l_x973_ -1
    x270 c_l_x974_ -1
    x270 c_l_x975_ -1
    x270 c_l_x976_ -1
    x270 c_l_x977_ -1
    x270 c_u_x1020_ -0.00065231572080887146
    x270 c_u_x1021_ -0.00065231572080887146
    x270 c_u_x1022_ -0.00065231572080887146
    x270 c_u_x1023_ -0.00065231572080887146
    x270 c_u_x1024_ -0.00065231572080887146
    x270 c_u_x1025_ -0.00065231572080887146
    x272 c_u_x733_ 1
    x272 c_u_x734_ 1
    x272 c_u_x735_ 1
    x272 c_u_x736_ 1
    x272 c_u_x737_ 1
    x272 c_e_x925_ 0.62
    x272 c_l_x973_ -1
    x272 c_l_x974_ -1
    x272 c_l_x975_ -1
    x272 c_l_x976_ -1
    x272 c_l_x977_ -1
    x272 c_u_x1021_ -0.00065231572080887146
    x272 c_u_x1022_ -0.00065231572080887146
    x272 c_u_x1023_ -0.00065231572080887146
    x272 c_u_x1024_ -0.00065231572080887146
    x272 c_u_x1025_ -0.00065231572080887146
    x274 c_u_x734_ 1
    x274 c_u_x735_ 1
    x274 c_u_x736_ 1
    x274 c_u_x737_ 1
    x274 c_e_x926_ 0.62
    x274 c_l_x974_ -1
    x274 c_l_x975_ -1
    x274 c_l_x976_ -1
    x274 c_l_x977_ -1
    x274 c_u_x1022_ -0.00065231572080887146
    x274 c_u_x1023_ -0.00065231572080887146
    x274 c_u_x1024_ -0.00065231572080887146
    x274 c_u_x1025_ -0.00065231572080887146
    x276 c_u_x735_ 1
    x276 c_u_x736_ 1
    x276 c_u_x737_ 1
    x276 c_e_x927_ 0.62
    x276 c_l_x975_ -1
    x276 c_l_x976_ -1
    x276 c_l_x977_ -1
    x276 c_u_x1023_ -0.00065231572080887146
    x276 c_u_x1024_ -0.00065231572080887146
    x276 c_u_x1025_ -0.00065231572080887146
    x278 c_u_x736_ 1
    x278 c_u_x737_ 1
    x278 c_e_x928_ 0.62
    x278 c_l_x976_ -1
    x278 c_l_x977_ -1
    x278 c_u_x1024_ -0.00065231572080887146
    x278 c_u_x1025_ -0.00065231572080887146
    x280 c_u_x737_ 1
    x280 c_e_x929_ 0.62
    x280 c_l_x977_ -1
    x280 c_u_x1025_ -0.00065231572080887146
    x282 c_u_x738_ 1
    x282 c_u_x739_ 1
    x282 c_u_x740_ 1
    x282 c_u_x741_ 1
    x282 c_u_x742_ 1
    x282 c_u_x743_ 1
    x282 c_u_x744_ 1
    x282 c_u_x745_ 1
    x282 c_u_x746_ 1
    x282 c_u_x747_ 1
    x282 c_u_x748_ 1
    x282 c_u_x749_ 1
    x282 c_e_x930_ 0.65000000000000002
    x282 c_l_x978_ -1
    x282 c_l_x979_ -1
    x282 c_l_x980_ -1
    x282 c_l_x981_ -1
    x282 c_l_x982_ -1
    x282 c_l_x983_ -1
    x282 c_l_x984_ -1
    x282 c_l_x985_ -1
    x282 c_l_x986_ -1
    x282 c_l_x987_ -1
    x282 c_l_x988_ -1
    x282 c_l_x989_ -1
    x282 c_u_x1026_ -0.0014214641080312722
    x282 c_u_x1027_ -0.0014214641080312722
    x282 c_u_x1028_ -0.0014214641080312722
    x282 c_u_x1029_ -0.0014214641080312722
    x282 c_u_x1030_ -0.0014214641080312722
    x282 c_u_x1031_ -0.0014214641080312722
    x282 c_u_x1032_ -0.0014214641080312722
    x282 c_u_x1033_ -0.0014214641080312722
    x282 c_u_x1034_ -0.0014214641080312722
    x282 c_u_x1035_ -0.0014214641080312722
    x282 c_u_x1036_ -0.0014214641080312722
    x282 c_u_x1037_ -0.0014214641080312722
    x284 c_u_x739_ 1
    x284 c_u_x740_ 1
    x284 c_u_x741_ 1
    x284 c_u_x742_ 1
    x284 c_u_x743_ 1
    x284 c_u_x744_ 1
    x284 c_u_x745_ 1
    x284 c_u_x746_ 1
    x284 c_u_x747_ 1
    x284 c_u_x748_ 1
    x284 c_u_x749_ 1
    x284 c_e_x931_ 0.65000000000000002
    x284 c_l_x979_ -1
    x284 c_l_x980_ -1
    x284 c_l_x981_ -1
    x284 c_l_x982_ -1
    x284 c_l_x983_ -1
    x284 c_l_x984_ -1
    x284 c_l_x985_ -1
    x284 c_l_x986_ -1
    x284 c_l_x987_ -1
    x284 c_l_x988_ -1
    x284 c_l_x989_ -1
    x284 c_u_x1027_ -0.0014214641080312722
    x284 c_u_x1028_ -0.0014214641080312722
    x284 c_u_x1029_ -0.0014214641080312722
    x284 c_u_x1030_ -0.0014214641080312722
    x284 c_u_x1031_ -0.0014214641080312722
    x284 c_u_x1032_ -0.0014214641080312722
    x284 c_u_x1033_ -0.0014214641080312722
    x284 c_u_x1034_ -0.0014214641080312722
    x284 c_u_x1035_ -0.0014214641080312722
    x284 c_u_x1036_ -0.0014214641080312722
    x284 c_u_x1037_ -0.0014214641080312722
    x286 c_u_x740_ 1
    x286 c_u_x741_ 1
    x286 c_u_x742_ 1
    x286 c_u_x743_ 1
    x286 c_u_x744_ 1
    x286 c_u_x745_ 1
    x286 c_u_x746_ 1
    x286 c_u_x747_ 1
    x286 c_u_x748_ 1
    x286 c_u_x749_ 1
    x286 c_e_x932_ 0.65000000000000002
    x286 c_l_x980_ -1
    x286 c_l_x981_ -1
    x286 c_l_x982_ -1
    x286 c_l_x983_ -1
    x286 c_l_x984_ -1
    x286 c_l_x985_ -1
    x286 c_l_x986_ -1
    x286 c_l_x987_ -1
    x286 c_l_x988_ -1
    x286 c_l_x989_ -1
    x286 c_u_x1028_ -0.0014214641080312722
    x286 c_u_x1029_ -0.0014214641080312722
    x286 c_u_x1030_ -0.0014214641080312722
    x286 c_u_x1031_ -0.0014214641080312722
    x286 c_u_x1032_ -0.0014214641080312722
    x286 c_u_x1033_ -0.0014214641080312722
    x286 c_u_x1034_ -0.0014214641080312722
    x286 c_u_x1035_ -0.0014214641080312722
    x286 c_u_x1036_ -0.0014214641080312722
    x286 c_u_x1037_ -0.0014214641080312722
    x288 c_u_x741_ 1
    x288 c_u_x742_ 1
    x288 c_u_x743_ 1
    x288 c_u_x744_ 1
    x288 c_u_x745_ 1
    x288 c_u_x746_ 1
    x288 c_u_x747_ 1
    x288 c_u_x748_ 1
    x288 c_u_x749_ 1
    x288 c_e_x933_ 0.65000000000000002
    x288 c_l_x981_ -1
    x288 c_l_x982_ -1
    x288 c_l_x983_ -1
    x288 c_l_x984_ -1
    x288 c_l_x985_ -1
    x288 c_l_x986_ -1
    x288 c_l_x987_ -1
    x288 c_l_x988_ -1
    x288 c_l_x989_ -1
    x288 c_u_x1029_ -0.0014214641080312722
    x288 c_u_x1030_ -0.0014214641080312722
    x288 c_u_x1031_ -0.0014214641080312722
    x288 c_u_x1032_ -0.0014214641080312722
    x288 c_u_x1033_ -0.0014214641080312722
    x288 c_u_x1034_ -0.0014214641080312722
    x288 c_u_x1035_ -0.0014214641080312722
    x288 c_u_x1036_ -0.0014214641080312722
    x288 c_u_x1037_ -0.0014214641080312722
    x290 c_u_x742_ 1
    x290 c_u_x743_ 1
    x290 c_u_x744_ 1
    x290 c_u_x745_ 1
    x290 c_u_x746_ 1
    x290 c_u_x747_ 1
    x290 c_u_x748_ 1
    x290 c_u_x749_ 1
    x290 c_e_x934_ 0.65000000000000002
    x290 c_l_x982_ -1
    x290 c_l_x983_ -1
    x290 c_l_x984_ -1
    x290 c_l_x985_ -1
    x290 c_l_x986_ -1
    x290 c_l_x987_ -1
    x290 c_l_x988_ -1
    x290 c_l_x989_ -1
    x290 c_u_x1030_ -0.0014214641080312722
    x290 c_u_x1031_ -0.0014214641080312722
    x290 c_u_x1032_ -0.0014214641080312722
    x290 c_u_x1033_ -0.0014214641080312722
    x290 c_u_x1034_ -0.0014214641080312722
    x290 c_u_x1035_ -0.0014214641080312722
    x290 c_u_x1036_ -0.0014214641080312722
    x290 c_u_x1037_ -0.0014214641080312722
    x292 c_u_x743_ 1
    x292 c_u_x744_ 1
    x292 c_u_x745_ 1
    x292 c_u_x746_ 1
    x292 c_u_x747_ 1
    x292 c_u_x748_ 1
    x292 c_u_x749_ 1
    x292 c_e_x935_ 0.65000000000000002
    x292 c_l_x983_ -1
    x292 c_l_x984_ -1
    x292 c_l_x985_ -1
    x292 c_l_x986_ -1
    x292 c_l_x987_ -1
    x292 c_l_x988_ -1
    x292 c_l_x989_ -1
    x292 c_u_x1031_ -0.0014214641080312722
    x292 c_u_x1032_ -0.0014214641080312722
    x292 c_u_x1033_ -0.0014214641080312722
    x292 c_u_x1034_ -0.0014214641080312722
    x292 c_u_x1035_ -0.0014214641080312722
    x292 c_u_x1036_ -0.0014214641080312722
    x292 c_u_x1037_ -0.0014214641080312722
    x294 c_u_x744_ 1
    x294 c_u_x745_ 1
    x294 c_u_x746_ 1
    x294 c_u_x747_ 1
    x294 c_u_x748_ 1
    x294 c_u_x749_ 1
    x294 c_e_x936_ 0.65000000000000002
    x294 c_l_x984_ -1
    x294 c_l_x985_ -1
    x294 c_l_x986_ -1
    x294 c_l_x987_ -1
    x294 c_l_x988_ -1
    x294 c_l_x989_ -1
    x294 c_u_x1032_ -0.0014214641080312722
    x294 c_u_x1033_ -0.0014214641080312722
    x294 c_u_x1034_ -0.0014214641080312722
    x294 c_u_x1035_ -0.0014214641080312722
    x294 c_u_x1036_ -0.0014214641080312722
    x294 c_u_x1037_ -0.0014214641080312722
    x296 c_u_x745_ 1
    x296 c_u_x746_ 1
    x296 c_u_x747_ 1
    x296 c_u_x748_ 1
    x296 c_u_x749_ 1
    x296 c_e_x937_ 0.65000000000000002
    x296 c_l_x985_ -1
    x296 c_l_x986_ -1
    x296 c_l_x987_ -1
    x296 c_l_x988_ -1
    x296 c_l_x989_ -1
    x296 c_u_x1033_ -0.0014214641080312722
    x296 c_u_x1034_ -0.0014214641080312722
    x296 c_u_x1035_ -0.0014214641080312722
    x296 c_u_x1036_ -0.0014214641080312722
    x296 c_u_x1037_ -0.0014214641080312722
    x298 c_u_x746_ 1
    x298 c_u_x747_ 1
    x298 c_u_x748_ 1
    x298 c_u_x749_ 1
    x298 c_e_x938_ 0.65000000000000002
    x298 c_l_x986_ -1
    x298 c_l_x987_ -1
    x298 c_l_x988_ -1
    x298 c_l_x989_ -1
    x298 c_u_x1034_ -0.0014214641080312722
    x298 c_u_x1035_ -0.0014214641080312722
    x298 c_u_x1036_ -0.0014214641080312722
    x298 c_u_x1037_ -0.0014214641080312722
    x300 c_u_x747_ 1
    x300 c_u_x748_ 1
    x300 c_u_x749_ 1
    x300 c_e_x939_ 0.65000000000000002
    x300 c_l_x987_ -1
    x300 c_l_x988_ -1
    x300 c_l_x989_ -1
    x300 c_u_x1035_ -0.0014214641080312722
    x300 c_u_x1036_ -0.0014214641080312722
    x300 c_u_x1037_ -0.0014214641080312722
    x302 c_u_x748_ 1
    x302 c_u_x749_ 1
    x302 c_e_x940_ 0.65000000000000002
    x302 c_l_x988_ -1
    x302 c_l_x989_ -1
    x302 c_u_x1036_ -0.0014214641080312722
    x302 c_u_x1037_ -0.0014214641080312722
    x304 c_u_x749_ 1
    x304 c_e_x941_ 0.65000000000000002
    x304 c_l_x989_ -1
    x304 c_u_x1037_ -0.0014214641080312722
    x306 c_u_x750_ 1
    x306 c_u_x751_ 1
    x306 c_u_x752_ 1
    x306 c_u_x753_ 1
    x306 c_u_x754_ 1
    x306 c_u_x755_ 1
    x306 c_u_x756_ 1
    x306 c_u_x757_ 1
    x306 c_u_x758_ 1
    x306 c_u_x759_ 1
    x306 c_u_x760_ 1
    x306 c_u_x761_ 1
    x306 c_e_x894_ 0.68999999999999995
    x306 c_l_x942_ -1
    x306 c_l_x943_ -1
    x306 c_l_x944_ -1
    x306 c_l_x945_ -1
    x306 c_l_x946_ -1
    x306 c_l_x947_ -1
    x306 c_l_x948_ -1
    x306 c_l_x949_ -1
    x306 c_l_x950_ -1
    x306 c_l_x951_ -1
    x306 c_l_x952_ -1
    x306 c_l_x953_ -1
    x306 c_u_x990_ -0.0016736401673640166
    x306 c_u_x991_ -0.0016736401673640166
    x306 c_u_x992_ -0.0016736401673640166
    x306 c_u_x993_ -0.0016736401673640166
    x306 c_u_x994_ -0.0016736401673640166
    x306 c_u_x995_ -0.0016736401673640166
    x306 c_u_x996_ -0.0016736401673640166
    x306 c_u_x997_ -0.0016736401673640166
    x306 c_u_x998_ -0.0016736401673640166
    x306 c_u_x999_ -0.0016736401673640166
    x306 c_u_x1000_ -0.0016736401673640166
    x306 c_u_x1001_ -0.0016736401673640166
    x308 c_u_x751_ 1
    x308 c_u_x752_ 1
    x308 c_u_x753_ 1
    x308 c_u_x754_ 1
    x308 c_u_x755_ 1
    x308 c_u_x756_ 1
    x308 c_u_x757_ 1
    x308 c_u_x758_ 1
    x308 c_u_x759_ 1
    x308 c_u_x760_ 1
    x308 c_u_x761_ 1
    x308 c_e_x895_ 0.68999999999999995
    x308 c_l_x943_ -1
    x308 c_l_x944_ -1
    x308 c_l_x945_ -1
    x308 c_l_x946_ -1
    x308 c_l_x947_ -1
    x308 c_l_x948_ -1
    x308 c_l_x949_ -1
    x308 c_l_x950_ -1
    x308 c_l_x951_ -1
    x308 c_l_x952_ -1
    x308 c_l_x953_ -1
    x308 c_u_x991_ -0.0016736401673640166
    x308 c_u_x992_ -0.0016736401673640166
    x308 c_u_x993_ -0.0016736401673640166
    x308 c_u_x994_ -0.0016736401673640166
    x308 c_u_x995_ -0.0016736401673640166
    x308 c_u_x996_ -0.0016736401673640166
    x308 c_u_x997_ -0.0016736401673640166
    x308 c_u_x998_ -0.0016736401673640166
    x308 c_u_x999_ -0.0016736401673640166
    x308 c_u_x1000_ -0.0016736401673640166
    x308 c_u_x1001_ -0.0016736401673640166
    x310 c_u_x752_ 1
    x310 c_u_x753_ 1
    x310 c_u_x754_ 1
    x310 c_u_x755_ 1
    x310 c_u_x756_ 1
    x310 c_u_x757_ 1
    x310 c_u_x758_ 1
    x310 c_u_x759_ 1
    x310 c_u_x760_ 1
    x310 c_u_x761_ 1
    x310 c_e_x896_ 0.68999999999999995
    x310 c_l_x944_ -1
    x310 c_l_x945_ -1
    x310 c_l_x946_ -1
    x310 c_l_x947_ -1
    x310 c_l_x948_ -1
    x310 c_l_x949_ -1
    x310 c_l_x950_ -1
    x310 c_l_x951_ -1
    x310 c_l_x952_ -1
    x310 c_l_x953_ -1
    x310 c_u_x992_ -0.0016736401673640166
    x310 c_u_x993_ -0.0016736401673640166
    x310 c_u_x994_ -0.0016736401673640166
    x310 c_u_x995_ -0.0016736401673640166
    x310 c_u_x996_ -0.0016736401673640166
    x310 c_u_x997_ -0.0016736401673640166
    x310 c_u_x998_ -0.0016736401673640166
    x310 c_u_x999_ -0.0016736401673640166
    x310 c_u_x1000_ -0.0016736401673640166
    x310 c_u_x1001_ -0.0016736401673640166
    x312 c_u_x753_ 1
    x312 c_u_x754_ 1
    x312 c_u_x755_ 1
    x312 c_u_x756_ 1
    x312 c_u_x757_ 1
    x312 c_u_x758_ 1
    x312 c_u_x759_ 1
    x312 c_u_x760_ 1
    x312 c_u_x761_ 1
    x312 c_e_x897_ 0.68999999999999995
    x312 c_l_x945_ -1
    x312 c_l_x946_ -1
    x312 c_l_x947_ -1
    x312 c_l_x948_ -1
    x312 c_l_x949_ -1
    x312 c_l_x950_ -1
    x312 c_l_x951_ -1
    x312 c_l_x952_ -1
    x312 c_l_x953_ -1
    x312 c_u_x993_ -0.0016736401673640166
    x312 c_u_x994_ -0.0016736401673640166
    x312 c_u_x995_ -0.0016736401673640166
    x312 c_u_x996_ -0.0016736401673640166
    x312 c_u_x997_ -0.0016736401673640166
    x312 c_u_x998_ -0.0016736401673640166
    x312 c_u_x999_ -0.0016736401673640166
    x312 c_u_x1000_ -0.0016736401673640166
    x312 c_u_x1001_ -0.0016736401673640166
    x314 c_u_x754_ 1
    x314 c_u_x755_ 1
    x314 c_u_x756_ 1
    x314 c_u_x757_ 1
    x314 c_u_x758_ 1
    x314 c_u_x759_ 1
    x314 c_u_x760_ 1
    x314 c_u_x761_ 1
    x314 c_e_x898_ 0.68999999999999995
    x314 c_l_x946_ -1
    x314 c_l_x947_ -1
    x314 c_l_x948_ -1
    x314 c_l_x949_ -1
    x314 c_l_x950_ -1
    x314 c_l_x951_ -1
    x314 c_l_x952_ -1
    x314 c_l_x953_ -1
    x314 c_u_x994_ -0.0016736401673640166
    x314 c_u_x995_ -0.0016736401673640166
    x314 c_u_x996_ -0.0016736401673640166
    x314 c_u_x997_ -0.0016736401673640166
    x314 c_u_x998_ -0.0016736401673640166
    x314 c_u_x999_ -0.0016736401673640166
    x314 c_u_x1000_ -0.0016736401673640166
    x314 c_u_x1001_ -0.0016736401673640166
    x316 c_u_x755_ 1
    x316 c_u_x756_ 1
    x316 c_u_x757_ 1
    x316 c_u_x758_ 1
    x316 c_u_x759_ 1
    x316 c_u_x760_ 1
    x316 c_u_x761_ 1
    x316 c_e_x899_ 0.68999999999999995
    x316 c_l_x947_ -1
    x316 c_l_x948_ -1
    x316 c_l_x949_ -1
    x316 c_l_x950_ -1
    x316 c_l_x951_ -1
    x316 c_l_x952_ -1
    x316 c_l_x953_ -1
    x316 c_u_x995_ -0.0016736401673640166
    x316 c_u_x996_ -0.0016736401673640166
    x316 c_u_x997_ -0.0016736401673640166
    x316 c_u_x998_ -0.0016736401673640166
    x316 c_u_x999_ -0.0016736401673640166
    x316 c_u_x1000_ -0.0016736401673640166
    x316 c_u_x1001_ -0.0016736401673640166
    x318 c_u_x756_ 1
    x318 c_u_x757_ 1
    x318 c_u_x758_ 1
    x318 c_u_x759_ 1
    x318 c_u_x760_ 1
    x318 c_u_x761_ 1
    x318 c_e_x900_ 0.68999999999999995
    x318 c_l_x948_ -1
    x318 c_l_x949_ -1
    x318 c_l_x950_ -1
    x318 c_l_x951_ -1
    x318 c_l_x952_ -1
    x318 c_l_x953_ -1
    x318 c_u_x996_ -0.0016736401673640166
    x318 c_u_x997_ -0.0016736401673640166
    x318 c_u_x998_ -0.0016736401673640166
    x318 c_u_x999_ -0.0016736401673640166
    x318 c_u_x1000_ -0.0016736401673640166
    x318 c_u_x1001_ -0.0016736401673640166
    x320 c_u_x757_ 1
    x320 c_u_x758_ 1
    x320 c_u_x759_ 1
    x320 c_u_x760_ 1
    x320 c_u_x761_ 1
    x320 c_e_x901_ 0.68999999999999995
    x320 c_l_x949_ -1
    x320 c_l_x950_ -1
    x320 c_l_x951_ -1
    x320 c_l_x952_ -1
    x320 c_l_x953_ -1
    x320 c_u_x997_ -0.0016736401673640166
    x320 c_u_x998_ -0.0016736401673640166
    x320 c_u_x999_ -0.0016736401673640166
    x320 c_u_x1000_ -0.0016736401673640166
    x320 c_u_x1001_ -0.0016736401673640166
    x322 c_u_x758_ 1
    x322 c_u_x759_ 1
    x322 c_u_x760_ 1
    x322 c_u_x761_ 1
    x322 c_e_x902_ 0.68999999999999995
    x322 c_l_x950_ -1
    x322 c_l_x951_ -1
    x322 c_l_x952_ -1
    x322 c_l_x953_ -1
    x322 c_u_x998_ -0.0016736401673640166
    x322 c_u_x999_ -0.0016736401673640166
    x322 c_u_x1000_ -0.0016736401673640166
    x322 c_u_x1001_ -0.0016736401673640166
    x324 c_u_x759_ 1
    x324 c_u_x760_ 1
    x324 c_u_x761_ 1
    x324 c_e_x903_ 0.68999999999999995
    x324 c_l_x951_ -1
    x324 c_l_x952_ -1
    x324 c_l_x953_ -1
    x324 c_u_x999_ -0.0016736401673640166
    x324 c_u_x1000_ -0.0016736401673640166
    x324 c_u_x1001_ -0.0016736401673640166
    x326 c_u_x760_ 1
    x326 c_u_x761_ 1
    x326 c_e_x904_ 0.68999999999999995
    x326 c_l_x952_ -1
    x326 c_l_x953_ -1
    x326 c_u_x1000_ -0.0016736401673640166
    x326 c_u_x1001_ -0.0016736401673640166
    x328 c_u_x761_ 1
    x328 c_e_x905_ 0.68999999999999995
    x328 c_l_x953_ -1
    x328 c_u_x1001_ -0.0016736401673640166
    x330 c_u_x762_ 1
    x330 c_u_x763_ 1
    x330 c_u_x764_ 1
    x330 c_u_x765_ 1
    x330 c_u_x766_ 1
    x330 c_u_x767_ 1
    x330 c_u_x768_ 1
    x330 c_u_x769_ 1
    x330 c_u_x770_ 1
    x330 c_u_x771_ 1
    x330 c_u_x772_ 1
    x330 c_u_x773_ 1
    x330 c_e_x906_ 0.63
    x330 c_l_x954_ -1
    x330 c_l_x955_ -1
    x330 c_l_x956_ -1
    x330 c_l_x957_ -1
    x330 c_l_x958_ -1
    x330 c_l_x959_ -1
    x330 c_l_x960_ -1
    x330 c_l_x961_ -1
    x330 c_l_x962_ -1
    x330 c_l_x963_ -1
    x330 c_l_x964_ -1
    x330 c_l_x965_ -1
    x330 c_u_x1002_ -0.0022935779816513763
    x330 c_u_x1003_ -0.0022935779816513763
    x330 c_u_x1004_ -0.0022935779816513763
    x330 c_u_x1005_ -0.0022935779816513763
    x330 c_u_x1006_ -0.0022935779816513763
    x330 c_u_x1007_ -0.0022935779816513763
    x330 c_u_x1008_ -0.0022935779816513763
    x330 c_u_x1009_ -0.0022935779816513763
    x330 c_u_x1010_ -0.0022935779816513763
    x330 c_u_x1011_ -0.0022935779816513763
    x330 c_u_x1012_ -0.0022935779816513763
    x330 c_u_x1013_ -0.0022935779816513763
    x332 c_u_x763_ 1
    x332 c_u_x764_ 1
    x332 c_u_x765_ 1
    x332 c_u_x766_ 1
    x332 c_u_x767_ 1
    x332 c_u_x768_ 1
    x332 c_u_x769_ 1
    x332 c_u_x770_ 1
    x332 c_u_x771_ 1
    x332 c_u_x772_ 1
    x332 c_u_x773_ 1
    x332 c_e_x907_ 0.63
    x332 c_l_x955_ -1
    x332 c_l_x956_ -1
    x332 c_l_x957_ -1
    x332 c_l_x958_ -1
    x332 c_l_x959_ -1
    x332 c_l_x960_ -1
    x332 c_l_x961_ -1
    x332 c_l_x962_ -1
    x332 c_l_x963_ -1
    x332 c_l_x964_ -1
    x332 c_l_x965_ -1
    x332 c_u_x1003_ -0.0022935779816513763
    x332 c_u_x1004_ -0.0022935779816513763
    x332 c_u_x1005_ -0.0022935779816513763
    x332 c_u_x1006_ -0.0022935779816513763
    x332 c_u_x1007_ -0.0022935779816513763
    x332 c_u_x1008_ -0.0022935779816513763
    x332 c_u_x1009_ -0.0022935779816513763
    x332 c_u_x1010_ -0.0022935779816513763
    x332 c_u_x1011_ -0.0022935779816513763
    x332 c_u_x1012_ -0.0022935779816513763
    x332 c_u_x1013_ -0.0022935779816513763
    x334 c_u_x764_ 1
    x334 c_u_x765_ 1
    x334 c_u_x766_ 1
    x334 c_u_x767_ 1
    x334 c_u_x768_ 1
    x334 c_u_x769_ 1
    x334 c_u_x770_ 1
    x334 c_u_x771_ 1
    x334 c_u_x772_ 1
    x334 c_u_x773_ 1
    x334 c_e_x908_ 0.63
    x334 c_l_x956_ -1
    x334 c_l_x957_ -1
    x334 c_l_x958_ -1
    x334 c_l_x959_ -1
    x334 c_l_x960_ -1
    x334 c_l_x961_ -1
    x334 c_l_x962_ -1
    x334 c_l_x963_ -1
    x334 c_l_x964_ -1
    x334 c_l_x965_ -1
    x334 c_u_x1004_ -0.0022935779816513763
    x334 c_u_x1005_ -0.0022935779816513763
    x334 c_u_x1006_ -0.0022935779816513763
    x334 c_u_x1007_ -0.0022935779816513763
    x334 c_u_x1008_ -0.0022935779816513763
    x334 c_u_x1009_ -0.0022935779816513763
    x334 c_u_x1010_ -0.0022935779816513763
    x334 c_u_x1011_ -0.0022935779816513763
    x334 c_u_x1012_ -0.0022935779816513763
    x334 c_u_x1013_ -0.0022935779816513763
    x336 c_u_x765_ 1
    x336 c_u_x766_ 1
    x336 c_u_x767_ 1
    x336 c_u_x768_ 1
    x336 c_u_x769_ 1
    x336 c_u_x770_ 1
    x336 c_u_x771_ 1
    x336 c_u_x772_ 1
    x336 c_u_x773_ 1
    x336 c_e_x909_ 0.63
    x336 c_l_x957_ -1
    x336 c_l_x958_ -1
    x336 c_l_x959_ -1
    x336 c_l_x960_ -1
    x336 c_l_x961_ -1
    x336 c_l_x962_ -1
    x336 c_l_x963_ -1
    x336 c_l_x964_ -1
    x336 c_l_x965_ -1
    x336 c_u_x1005_ -0.0022935779816513763
    x336 c_u_x1006_ -0.0022935779816513763
    x336 c_u_x1007_ -0.0022935779816513763
    x336 c_u_x1008_ -0.0022935779816513763
    x336 c_u_x1009_ -0.0022935779816513763
    x336 c_u_x1010_ -0.0022935779816513763
    x336 c_u_x1011_ -0.0022935779816513763
    x336 c_u_x1012_ -0.0022935779816513763
    x336 c_u_x1013_ -0.0022935779816513763
    x338 c_u_x766_ 1
    x338 c_u_x767_ 1
    x338 c_u_x768_ 1
    x338 c_u_x769_ 1
    x338 c_u_x770_ 1
    x338 c_u_x771_ 1
    x338 c_u_x772_ 1
    x338 c_u_x773_ 1
    x338 c_e_x910_ 0.63
    x338 c_l_x958_ -1
    x338 c_l_x959_ -1
    x338 c_l_x960_ -1
    x338 c_l_x961_ -1
    x338 c_l_x962_ -1
    x338 c_l_x963_ -1
    x338 c_l_x964_ -1
    x338 c_l_x965_ -1
    x338 c_u_x1006_ -0.0022935779816513763
    x338 c_u_x1007_ -0.0022935779816513763
    x338 c_u_x1008_ -0.0022935779816513763
    x338 c_u_x1009_ -0.0022935779816513763
    x338 c_u_x1010_ -0.0022935779816513763
    x338 c_u_x1011_ -0.0022935779816513763
    x338 c_u_x1012_ -0.0022935779816513763
    x338 c_u_x1013_ -0.0022935779816513763
    x340 c_u_x767_ 1
    x340 c_u_x768_ 1
    x340 c_u_x769_ 1
    x340 c_u_x770_ 1
    x340 c_u_x771_ 1
    x340 c_u_x772_ 1
    x340 c_u_x773_ 1
    x340 c_e_x911_ 0.63
    x340 c_l_x959_ -1
    x340 c_l_x960_ -1
    x340 c_l_x961_ -1
    x340 c_l_x962_ -1
    x340 c_l_x963_ -1
    x340 c_l_x964_ -1
    x340 c_l_x965_ -1
    x340 c_u_x1007_ -0.0022935779816513763
    x340 c_u_x1008_ -0.0022935779816513763
    x340 c_u_x1009_ -0.0022935779816513763
    x340 c_u_x1010_ -0.0022935779816513763
    x340 c_u_x1011_ -0.0022935779816513763
    x340 c_u_x1012_ -0.0022935779816513763
    x340 c_u_x1013_ -0.0022935779816513763
    x342 c_u_x768_ 1
    x342 c_u_x769_ 1
    x342 c_u_x770_ 1
    x342 c_u_x771_ 1
    x342 c_u_x772_ 1
    x342 c_u_x773_ 1
    x342 c_e_x912_ 0.63
    x342 c_l_x960_ -1
    x342 c_l_x961_ -1
    x342 c_l_x962_ -1
    x342 c_l_x963_ -1
    x342 c_l_x964_ -1
    x342 c_l_x965_ -1
    x342 c_u_x1008_ -0.0022935779816513763
    x342 c_u_x1009_ -0.0022935779816513763
    x342 c_u_x1010_ -0.0022935779816513763
    x342 c_u_x1011_ -0.0022935779816513763
    x342 c_u_x1012_ -0.0022935779816513763
    x342 c_u_x1013_ -0.0022935779816513763
    x344 c_u_x769_ 1
    x344 c_u_x770_ 1
    x344 c_u_x771_ 1
    x344 c_u_x772_ 1
    x344 c_u_x773_ 1
    x344 c_e_x913_ 0.63
    x344 c_l_x961_ -1
    x344 c_l_x962_ -1
    x344 c_l_x963_ -1
    x344 c_l_x964_ -1
    x344 c_l_x965_ -1
    x344 c_u_x1009_ -0.0022935779816513763
    x344 c_u_x1010_ -0.0022935779816513763
    x344 c_u_x1011_ -0.0022935779816513763
    x344 c_u_x1012_ -0.0022935779816513763
    x344 c_u_x1013_ -0.0022935779816513763
    x346 c_u_x770_ 1
    x346 c_u_x771_ 1
    x346 c_u_x772_ 1
    x346 c_u_x773_ 1
    x346 c_e_x914_ 0.63
    x346 c_l_x962_ -1
    x346 c_l_x963_ -1
    x346 c_l_x964_ -1
    x346 c_l_x965_ -1
    x346 c_u_x1010_ -0.0022935779816513763
    x346 c_u_x1011_ -0.0022935779816513763
    x346 c_u_x1012_ -0.0022935779816513763
    x346 c_u_x1013_ -0.0022935779816513763
    x348 c_u_x771_ 1
    x348 c_u_x772_ 1
    x348 c_u_x773_ 1
    x348 c_e_x915_ 0.63
    x348 c_l_x963_ -1
    x348 c_l_x964_ -1
    x348 c_l_x965_ -1
    x348 c_u_x1011_ -0.0022935779816513763
    x348 c_u_x1012_ -0.0022935779816513763
    x348 c_u_x1013_ -0.0022935779816513763
    x350 c_u_x772_ 1
    x350 c_u_x773_ 1
    x350 c_e_x916_ 0.63
    x350 c_l_x964_ -1
    x350 c_l_x965_ -1
    x350 c_u_x1012_ -0.0022935779816513763
    x350 c_u_x1013_ -0.0022935779816513763
    x352 c_u_x773_ 1
    x352 c_e_x917_ 0.63
    x352 c_l_x965_ -1
    x352 c_u_x1013_ -0.0022935779816513763
    x354 c_u_x774_ 1
    x354 c_u_x775_ 1
    x354 c_u_x776_ 1
    x354 c_u_x777_ 1
    x354 c_u_x778_ 1
    x354 c_u_x779_ 1
    x354 c_u_x780_ 1
    x354 c_u_x781_ 1
    x354 c_u_x782_ 1
    x354 c_u_x783_ 1
    x354 c_u_x784_ 1
    x354 c_u_x785_ 1
    x354 c_e_x918_ 0.78000000000000003
    x354 c_l_x966_ -1
    x354 c_l_x967_ -1
    x354 c_l_x968_ -1
    x354 c_l_x969_ -1
    x354 c_l_x970_ -1
    x354 c_l_x971_ -1
    x354 c_l_x972_ -1
    x354 c_l_x973_ -1
    x354 c_l_x974_ -1
    x354 c_l_x975_ -1
    x354 c_l_x976_ -1
    x354 c_l_x977_ -1
    x354 c_u_x1014_ -0.00060350030175015089
    x354 c_u_x1015_ -0.00060350030175015089
    x354 c_u_x1016_ -0.00060350030175015089
    x354 c_u_x1017_ -0.00060350030175015089
    x354 c_u_x1018_ -0.00060350030175015089
    x354 c_u_x1019_ -0.00060350030175015089
    x354 c_u_x1020_ -0.00060350030175015089
    x354 c_u_x1021_ -0.00060350030175015089
    x354 c_u_x1022_ -0.00060350030175015089
    x354 c_u_x1023_ -0.00060350030175015089
    x354 c_u_x1024_ -0.00060350030175015089
    x354 c_u_x1025_ -0.00060350030175015089
    x356 c_u_x775_ 1
    x356 c_u_x776_ 1
    x356 c_u_x777_ 1
    x356 c_u_x778_ 1
    x356 c_u_x779_ 1
    x356 c_u_x780_ 1
    x356 c_u_x781_ 1
    x356 c_u_x782_ 1
    x356 c_u_x783_ 1
    x356 c_u_x784_ 1
    x356 c_u_x785_ 1
    x356 c_e_x919_ 0.78000000000000003
    x356 c_l_x967_ -1
    x356 c_l_x968_ -1
    x356 c_l_x969_ -1
    x356 c_l_x970_ -1
    x356 c_l_x971_ -1
    x356 c_l_x972_ -1
    x356 c_l_x973_ -1
    x356 c_l_x974_ -1
    x356 c_l_x975_ -1
    x356 c_l_x976_ -1
    x356 c_l_x977_ -1
    x356 c_u_x1015_ -0.00060350030175015089
    x356 c_u_x1016_ -0.00060350030175015089
    x356 c_u_x1017_ -0.00060350030175015089
    x356 c_u_x1018_ -0.00060350030175015089
    x356 c_u_x1019_ -0.00060350030175015089
    x356 c_u_x1020_ -0.00060350030175015089
    x356 c_u_x1021_ -0.00060350030175015089
    x356 c_u_x1022_ -0.00060350030175015089
    x356 c_u_x1023_ -0.00060350030175015089
    x356 c_u_x1024_ -0.00060350030175015089
    x356 c_u_x1025_ -0.00060350030175015089
    x358 c_u_x776_ 1
    x358 c_u_x777_ 1
    x358 c_u_x778_ 1
    x358 c_u_x779_ 1
    x358 c_u_x780_ 1
    x358 c_u_x781_ 1
    x358 c_u_x782_ 1
    x358 c_u_x783_ 1
    x358 c_u_x784_ 1
    x358 c_u_x785_ 1
    x358 c_e_x920_ 0.78000000000000003
    x358 c_l_x968_ -1
    x358 c_l_x969_ -1
    x358 c_l_x970_ -1
    x358 c_l_x971_ -1
    x358 c_l_x972_ -1
    x358 c_l_x973_ -1
    x358 c_l_x974_ -1
    x358 c_l_x975_ -1
    x358 c_l_x976_ -1
    x358 c_l_x977_ -1
    x358 c_u_x1016_ -0.00060350030175015089
    x358 c_u_x1017_ -0.00060350030175015089
    x358 c_u_x1018_ -0.00060350030175015089
    x358 c_u_x1019_ -0.00060350030175015089
    x358 c_u_x1020_ -0.00060350030175015089
    x358 c_u_x1021_ -0.00060350030175015089
    x358 c_u_x1022_ -0.00060350030175015089
    x358 c_u_x1023_ -0.00060350030175015089
    x358 c_u_x1024_ -0.00060350030175015089
    x358 c_u_x1025_ -0.00060350030175015089
    x360 c_u_x777_ 1
    x360 c_u_x778_ 1
    x360 c_u_x779_ 1
    x360 c_u_x780_ 1
    x360 c_u_x781_ 1
    x360 c_u_x782_ 1
    x360 c_u_x783_ 1
    x360 c_u_x784_ 1
    x360 c_u_x785_ 1
    x360 c_e_x921_ 0.78000000000000003
    x360 c_l_x969_ -1
    x360 c_l_x970_ -1
    x360 c_l_x971_ -1
    x360 c_l_x972_ -1
    x360 c_l_x973_ -1
    x360 c_l_x974_ -1
    x360 c_l_x975_ -1
    x360 c_l_x976_ -1
    x360 c_l_x977_ -1
    x360 c_u_x1017_ -0.00060350030175015089
    x360 c_u_x1018_ -0.00060350030175015089
    x360 c_u_x1019_ -0.00060350030175015089
    x360 c_u_x1020_ -0.00060350030175015089
    x360 c_u_x1021_ -0.00060350030175015089
    x360 c_u_x1022_ -0.00060350030175015089
    x360 c_u_x1023_ -0.00060350030175015089
    x360 c_u_x1024_ -0.00060350030175015089
    x360 c_u_x1025_ -0.00060350030175015089
    x362 c_u_x778_ 1
    x362 c_u_x779_ 1
    x362 c_u_x780_ 1
    x362 c_u_x781_ 1
    x362 c_u_x782_ 1
    x362 c_u_x783_ 1
    x362 c_u_x784_ 1
    x362 c_u_x785_ 1
    x362 c_e_x922_ 0.78000000000000003
    x362 c_l_x970_ -1
    x362 c_l_x971_ -1
    x362 c_l_x972_ -1
    x362 c_l_x973_ -1
    x362 c_l_x974_ -1
    x362 c_l_x975_ -1
    x362 c_l_x976_ -1
    x362 c_l_x977_ -1
    x362 c_u_x1018_ -0.00060350030175015089
    x362 c_u_x1019_ -0.00060350030175015089
    x362 c_u_x1020_ -0.00060350030175015089
    x362 c_u_x1021_ -0.00060350030175015089
    x362 c_u_x1022_ -0.00060350030175015089
    x362 c_u_x1023_ -0.00060350030175015089
    x362 c_u_x1024_ -0.00060350030175015089
    x362 c_u_x1025_ -0.00060350030175015089
    x364 c_u_x779_ 1
    x364 c_u_x780_ 1
    x364 c_u_x781_ 1
    x364 c_u_x782_ 1
    x364 c_u_x783_ 1
    x364 c_u_x784_ 1
    x364 c_u_x785_ 1
    x364 c_e_x923_ 0.78000000000000003
    x364 c_l_x971_ -1
    x364 c_l_x972_ -1
    x364 c_l_x973_ -1
    x364 c_l_x974_ -1
    x364 c_l_x975_ -1
    x364 c_l_x976_ -1
    x364 c_l_x977_ -1
    x364 c_u_x1019_ -0.00060350030175015089
    x364 c_u_x1020_ -0.00060350030175015089
    x364 c_u_x1021_ -0.00060350030175015089
    x364 c_u_x1022_ -0.00060350030175015089
    x364 c_u_x1023_ -0.00060350030175015089
    x364 c_u_x1024_ -0.00060350030175015089
    x364 c_u_x1025_ -0.00060350030175015089
    x366 c_u_x780_ 1
    x366 c_u_x781_ 1
    x366 c_u_x782_ 1
    x366 c_u_x783_ 1
    x366 c_u_x784_ 1
    x366 c_u_x785_ 1
    x366 c_e_x924_ 0.78000000000000003
    x366 c_l_x972_ -1
    x366 c_l_x973_ -1
    x366 c_l_x974_ -1
    x366 c_l_x975_ -1
    x366 c_l_x976_ -1
    x366 c_l_x977_ -1
    x366 c_u_x1020_ -0.00060350030175015089
    x366 c_u_x1021_ -0.00060350030175015089
    x366 c_u_x1022_ -0.00060350030175015089
    x366 c_u_x1023_ -0.00060350030175015089
    x366 c_u_x1024_ -0.00060350030175015089
    x366 c_u_x1025_ -0.00060350030175015089
    x368 c_u_x781_ 1
    x368 c_u_x782_ 1
    x368 c_u_x783_ 1
    x368 c_u_x784_ 1
    x368 c_u_x785_ 1
    x368 c_e_x925_ 0.78000000000000003
    x368 c_l_x973_ -1
    x368 c_l_x974_ -1
    x368 c_l_x975_ -1
    x368 c_l_x976_ -1
    x368 c_l_x977_ -1
    x368 c_u_x1021_ -0.00060350030175015089
    x368 c_u_x1022_ -0.00060350030175015089
    x368 c_u_x1023_ -0.00060350030175015089
    x368 c_u_x1024_ -0.00060350030175015089
    x368 c_u_x1025_ -0.00060350030175015089
    x370 c_u_x782_ 1
    x370 c_u_x783_ 1
    x370 c_u_x784_ 1
    x370 c_u_x785_ 1
    x370 c_e_x926_ 0.78000000000000003
    x370 c_l_x974_ -1
    x370 c_l_x975_ -1
    x370 c_l_x976_ -1
    x370 c_l_x977_ -1
    x370 c_u_x1022_ -0.00060350030175015089
    x370 c_u_x1023_ -0.00060350030175015089
    x370 c_u_x1024_ -0.00060350030175015089
    x370 c_u_x1025_ -0.00060350030175015089
    x372 c_u_x783_ 1
    x372 c_u_x784_ 1
    x372 c_u_x785_ 1
    x372 c_e_x927_ 0.78000000000000003
    x372 c_l_x975_ -1
    x372 c_l_x976_ -1
    x372 c_l_x977_ -1
    x372 c_u_x1023_ -0.00060350030175015089
    x372 c_u_x1024_ -0.00060350030175015089
    x372 c_u_x1025_ -0.00060350030175015089
    x374 c_u_x784_ 1
    x374 c_u_x785_ 1
    x374 c_e_x928_ 0.78000000000000003
    x374 c_l_x976_ -1
    x374 c_l_x977_ -1
    x374 c_u_x1024_ -0.00060350030175015089
    x374 c_u_x1025_ -0.00060350030175015089
    x376 c_u_x785_ 1
    x376 c_e_x929_ 0.78000000000000003
    x376 c_l_x977_ -1
    x376 c_u_x1025_ -0.00060350030175015089
    x378 c_u_x786_ 1
    x378 c_u_x787_ 1
    x378 c_u_x788_ 1
    x378 c_u_x789_ 1
    x378 c_u_x790_ 1
    x378 c_u_x791_ 1
    x378 c_u_x792_ 1
    x378 c_u_x793_ 1
    x378 c_u_x794_ 1
    x378 c_u_x795_ 1
    x378 c_u_x796_ 1
    x378 c_u_x797_ 1
    x378 c_e_x930_ 0.68999999999999995
    x378 c_l_x978_ -1
    x378 c_l_x979_ -1
    x378 c_l_x980_ -1
    x378 c_l_x981_ -1
    x378 c_l_x982_ -1
    x378 c_l_x983_ -1
    x378 c_l_x984_ -1
    x378 c_l_x985_ -1
    x378 c_l_x986_ -1
    x378 c_l_x987_ -1
    x378 c_l_x988_ -1
    x378 c_l_x989_ -1
    x378 c_u_x1026_ -0.0010793308148947653
    x378 c_u_x1027_ -0.0010793308148947653
    x378 c_u_x1028_ -0.0010793308148947653
    x378 c_u_x1029_ -0.0010793308148947653
    x378 c_u_x1030_ -0.0010793308148947653
    x378 c_u_x1031_ -0.0010793308148947653
    x378 c_u_x1032_ -0.0010793308148947653
    x378 c_u_x1033_ -0.0010793308148947653
    x378 c_u_x1034_ -0.0010793308148947653
    x378 c_u_x1035_ -0.0010793308148947653
    x378 c_u_x1036_ -0.0010793308148947653
    x378 c_u_x1037_ -0.0010793308148947653
    x380 c_u_x787_ 1
    x380 c_u_x788_ 1
    x380 c_u_x789_ 1
    x380 c_u_x790_ 1
    x380 c_u_x791_ 1
    x380 c_u_x792_ 1
    x380 c_u_x793_ 1
    x380 c_u_x794_ 1
    x380 c_u_x795_ 1
    x380 c_u_x796_ 1
    x380 c_u_x797_ 1
    x380 c_e_x931_ 0.68999999999999995
    x380 c_l_x979_ -1
    x380 c_l_x980_ -1
    x380 c_l_x981_ -1
    x380 c_l_x982_ -1
    x380 c_l_x983_ -1
    x380 c_l_x984_ -1
    x380 c_l_x985_ -1
    x380 c_l_x986_ -1
    x380 c_l_x987_ -1
    x380 c_l_x988_ -1
    x380 c_l_x989_ -1
    x380 c_u_x1027_ -0.0010793308148947653
    x380 c_u_x1028_ -0.0010793308148947653
    x380 c_u_x1029_ -0.0010793308148947653
    x380 c_u_x1030_ -0.0010793308148947653
    x380 c_u_x1031_ -0.0010793308148947653
    x380 c_u_x1032_ -0.0010793308148947653
    x380 c_u_x1033_ -0.0010793308148947653
    x380 c_u_x1034_ -0.0010793308148947653
    x380 c_u_x1035_ -0.0010793308148947653
    x380 c_u_x1036_ -0.0010793308148947653
    x380 c_u_x1037_ -0.0010793308148947653
    x382 c_u_x788_ 1
    x382 c_u_x789_ 1
    x382 c_u_x790_ 1
    x382 c_u_x791_ 1
    x382 c_u_x792_ 1
    x382 c_u_x793_ 1
    x382 c_u_x794_ 1
    x382 c_u_x795_ 1
    x382 c_u_x796_ 1
    x382 c_u_x797_ 1
    x382 c_e_x932_ 0.68999999999999995
    x382 c_l_x980_ -1
    x382 c_l_x981_ -1
    x382 c_l_x982_ -1
    x382 c_l_x983_ -1
    x382 c_l_x984_ -1
    x382 c_l_x985_ -1
    x382 c_l_x986_ -1
    x382 c_l_x987_ -1
    x382 c_l_x988_ -1
    x382 c_l_x989_ -1
    x382 c_u_x1028_ -0.0010793308148947653
    x382 c_u_x1029_ -0.0010793308148947653
    x382 c_u_x1030_ -0.0010793308148947653
    x382 c_u_x1031_ -0.0010793308148947653
    x382 c_u_x1032_ -0.0010793308148947653
    x382 c_u_x1033_ -0.0010793308148947653
    x382 c_u_x1034_ -0.0010793308148947653
    x382 c_u_x1035_ -0.0010793308148947653
    x382 c_u_x1036_ -0.0010793308148947653
    x382 c_u_x1037_ -0.0010793308148947653
    x384 c_u_x789_ 1
    x384 c_u_x790_ 1
    x384 c_u_x791_ 1
    x384 c_u_x792_ 1
    x384 c_u_x793_ 1
    x384 c_u_x794_ 1
    x384 c_u_x795_ 1
    x384 c_u_x796_ 1
    x384 c_u_x797_ 1
    x384 c_e_x933_ 0.68999999999999995
    x384 c_l_x981_ -1
    x384 c_l_x982_ -1
    x384 c_l_x983_ -1
    x384 c_l_x984_ -1
    x384 c_l_x985_ -1
    x384 c_l_x986_ -1
    x384 c_l_x987_ -1
    x384 c_l_x988_ -1
    x384 c_l_x989_ -1
    x384 c_u_x1029_ -0.0010793308148947653
    x384 c_u_x1030_ -0.0010793308148947653
    x384 c_u_x1031_ -0.0010793308148947653
    x384 c_u_x1032_ -0.0010793308148947653
    x384 c_u_x1033_ -0.0010793308148947653
    x384 c_u_x1034_ -0.0010793308148947653
    x384 c_u_x1035_ -0.0010793308148947653
    x384 c_u_x1036_ -0.0010793308148947653
    x384 c_u_x1037_ -0.0010793308148947653
    x386 c_u_x790_ 1
    x386 c_u_x791_ 1
    x386 c_u_x792_ 1
    x386 c_u_x793_ 1
    x386 c_u_x794_ 1
    x386 c_u_x795_ 1
    x386 c_u_x796_ 1
    x386 c_u_x797_ 1
    x386 c_e_x934_ 0.68999999999999995
    x386 c_l_x982_ -1
    x386 c_l_x983_ -1
    x386 c_l_x984_ -1
    x386 c_l_x985_ -1
    x386 c_l_x986_ -1
    x386 c_l_x987_ -1
    x386 c_l_x988_ -1
    x386 c_l_x989_ -1
    x386 c_u_x1030_ -0.0010793308148947653
    x386 c_u_x1031_ -0.0010793308148947653
    x386 c_u_x1032_ -0.0010793308148947653
    x386 c_u_x1033_ -0.0010793308148947653
    x386 c_u_x1034_ -0.0010793308148947653
    x386 c_u_x1035_ -0.0010793308148947653
    x386 c_u_x1036_ -0.0010793308148947653
    x386 c_u_x1037_ -0.0010793308148947653
    x388 c_u_x791_ 1
    x388 c_u_x792_ 1
    x388 c_u_x793_ 1
    x388 c_u_x794_ 1
    x388 c_u_x795_ 1
    x388 c_u_x796_ 1
    x388 c_u_x797_ 1
    x388 c_e_x935_ 0.68999999999999995
    x388 c_l_x983_ -1
    x388 c_l_x984_ -1
    x388 c_l_x985_ -1
    x388 c_l_x986_ -1
    x388 c_l_x987_ -1
    x388 c_l_x988_ -1
    x388 c_l_x989_ -1
    x388 c_u_x1031_ -0.0010793308148947653
    x388 c_u_x1032_ -0.0010793308148947653
    x388 c_u_x1033_ -0.0010793308148947653
    x388 c_u_x1034_ -0.0010793308148947653
    x388 c_u_x1035_ -0.0010793308148947653
    x388 c_u_x1036_ -0.0010793308148947653
    x388 c_u_x1037_ -0.0010793308148947653
    x390 c_u_x792_ 1
    x390 c_u_x793_ 1
    x390 c_u_x794_ 1
    x390 c_u_x795_ 1
    x390 c_u_x796_ 1
    x390 c_u_x797_ 1
    x390 c_e_x936_ 0.68999999999999995
    x390 c_l_x984_ -1
    x390 c_l_x985_ -1
    x390 c_l_x986_ -1
    x390 c_l_x987_ -1
    x390 c_l_x988_ -1
    x390 c_l_x989_ -1
    x390 c_u_x1032_ -0.0010793308148947653
    x390 c_u_x1033_ -0.0010793308148947653
    x390 c_u_x1034_ -0.0010793308148947653
    x390 c_u_x1035_ -0.0010793308148947653
    x390 c_u_x1036_ -0.0010793308148947653
    x390 c_u_x1037_ -0.0010793308148947653
    x392 c_u_x793_ 1
    x392 c_u_x794_ 1
    x392 c_u_x795_ 1
    x392 c_u_x796_ 1
    x392 c_u_x797_ 1
    x392 c_e_x937_ 0.68999999999999995
    x392 c_l_x985_ -1
    x392 c_l_x986_ -1
    x392 c_l_x987_ -1
    x392 c_l_x988_ -1
    x392 c_l_x989_ -1
    x392 c_u_x1033_ -0.0010793308148947653
    x392 c_u_x1034_ -0.0010793308148947653
    x392 c_u_x1035_ -0.0010793308148947653
    x392 c_u_x1036_ -0.0010793308148947653
    x392 c_u_x1037_ -0.0010793308148947653
    x394 c_u_x794_ 1
    x394 c_u_x795_ 1
    x394 c_u_x796_ 1
    x394 c_u_x797_ 1
    x394 c_e_x938_ 0.68999999999999995
    x394 c_l_x986_ -1
    x394 c_l_x987_ -1
    x394 c_l_x988_ -1
    x394 c_l_x989_ -1
    x394 c_u_x1034_ -0.0010793308148947653
    x394 c_u_x1035_ -0.0010793308148947653
    x394 c_u_x1036_ -0.0010793308148947653
    x394 c_u_x1037_ -0.0010793308148947653
    x396 c_u_x795_ 1
    x396 c_u_x796_ 1
    x396 c_u_x797_ 1
    x396 c_e_x939_ 0.68999999999999995
    x396 c_l_x987_ -1
    x396 c_l_x988_ -1
    x396 c_l_x989_ -1
    x396 c_u_x1035_ -0.0010793308148947653
    x396 c_u_x1036_ -0.0010793308148947653
    x396 c_u_x1037_ -0.0010793308148947653
    x398 c_u_x796_ 1
    x398 c_u_x797_ 1
    x398 c_e_x940_ 0.68999999999999995
    x398 c_l_x988_ -1
    x398 c_l_x989_ -1
    x398 c_u_x1036_ -0.0010793308148947653
    x398 c_u_x1037_ -0.0010793308148947653
    x400 c_u_x797_ 1
    x400 c_e_x941_ 0.68999999999999995
    x400 c_l_x989_ -1
    x400 c_u_x1037_ -0.0010793308148947653
    x402 c_u_x798_ 1
    x402 c_u_x799_ 1
    x402 c_u_x800_ 1
    x402 c_u_x801_ 1
    x402 c_u_x802_ 1
    x402 c_u_x803_ 1
    x402 c_u_x804_ 1
    x402 c_u_x805_ 1
    x402 c_u_x806_ 1
    x402 c_u_x807_ 1
    x402 c_u_x808_ 1
    x402 c_u_x809_ 1
    x402 c_e_x894_ 0.80000000000000004
    x402 c_l_x942_ -1
    x402 c_l_x943_ -1
    x402 c_l_x944_ -1
    x402 c_l_x945_ -1
    x402 c_l_x946_ -1
    x402 c_l_x947_ -1
    x402 c_l_x948_ -1
    x402 c_l_x949_ -1
    x402 c_l_x950_ -1
    x402 c_l_x951_ -1
    x402 c_l_x952_ -1
    x402 c_l_x953_ -1
    x402 c_u_x990_ -0.001238390092879257
    x402 c_u_x991_ -0.001238390092879257
    x402 c_u_x992_ -0.001238390092879257
    x402 c_u_x993_ -0.001238390092879257
    x402 c_u_x994_ -0.001238390092879257
    x402 c_u_x995_ -0.001238390092879257
    x402 c_u_x996_ -0.001238390092879257
    x402 c_u_x997_ -0.001238390092879257
    x402 c_u_x998_ -0.001238390092879257
    x402 c_u_x999_ -0.001238390092879257
    x402 c_u_x1000_ -0.001238390092879257
    x402 c_u_x1001_ -0.001238390092879257
    x404 c_u_x799_ 1
    x404 c_u_x800_ 1
    x404 c_u_x801_ 1
    x404 c_u_x802_ 1
    x404 c_u_x803_ 1
    x404 c_u_x804_ 1
    x404 c_u_x805_ 1
    x404 c_u_x806_ 1
    x404 c_u_x807_ 1
    x404 c_u_x808_ 1
    x404 c_u_x809_ 1
    x404 c_e_x895_ 0.80000000000000004
    x404 c_l_x943_ -1
    x404 c_l_x944_ -1
    x404 c_l_x945_ -1
    x404 c_l_x946_ -1
    x404 c_l_x947_ -1
    x404 c_l_x948_ -1
    x404 c_l_x949_ -1
    x404 c_l_x950_ -1
    x404 c_l_x951_ -1
    x404 c_l_x952_ -1
    x404 c_l_x953_ -1
    x404 c_u_x991_ -0.001238390092879257
    x404 c_u_x992_ -0.001238390092879257
    x404 c_u_x993_ -0.001238390092879257
    x404 c_u_x994_ -0.001238390092879257
    x404 c_u_x995_ -0.001238390092879257
    x404 c_u_x996_ -0.001238390092879257
    x404 c_u_x997_ -0.001238390092879257
    x404 c_u_x998_ -0.001238390092879257
    x404 c_u_x999_ -0.001238390092879257
    x404 c_u_x1000_ -0.001238390092879257
    x404 c_u_x1001_ -0.001238390092879257
    x406 c_u_x800_ 1
    x406 c_u_x801_ 1
    x406 c_u_x802_ 1
    x406 c_u_x803_ 1
    x406 c_u_x804_ 1
    x406 c_u_x805_ 1
    x406 c_u_x806_ 1
    x406 c_u_x807_ 1
    x406 c_u_x808_ 1
    x406 c_u_x809_ 1
    x406 c_e_x896_ 0.80000000000000004
    x406 c_l_x944_ -1
    x406 c_l_x945_ -1
    x406 c_l_x946_ -1
    x406 c_l_x947_ -1
    x406 c_l_x948_ -1
    x406 c_l_x949_ -1
    x406 c_l_x950_ -1
    x406 c_l_x951_ -1
    x406 c_l_x952_ -1
    x406 c_l_x953_ -1
    x406 c_u_x992_ -0.001238390092879257
    x406 c_u_x993_ -0.001238390092879257
    x406 c_u_x994_ -0.001238390092879257
    x406 c_u_x995_ -0.001238390092879257
    x406 c_u_x996_ -0.001238390092879257
    x406 c_u_x997_ -0.001238390092879257
    x406 c_u_x998_ -0.001238390092879257
    x406 c_u_x999_ -0.001238390092879257
    x406 c_u_x1000_ -0.001238390092879257
    x406 c_u_x1001_ -0.001238390092879257
    x408 c_u_x801_ 1
    x408 c_u_x802_ 1
    x408 c_u_x803_ 1
    x408 c_u_x804_ 1
    x408 c_u_x805_ 1
    x408 c_u_x806_ 1
    x408 c_u_x807_ 1
    x408 c_u_x808_ 1
    x408 c_u_x809_ 1
    x408 c_e_x897_ 0.80000000000000004
    x408 c_l_x945_ -1
    x408 c_l_x946_ -1
    x408 c_l_x947_ -1
    x408 c_l_x948_ -1
    x408 c_l_x949_ -1
    x408 c_l_x950_ -1
    x408 c_l_x951_ -1
    x408 c_l_x952_ -1
    x408 c_l_x953_ -1
    x408 c_u_x993_ -0.001238390092879257
    x408 c_u_x994_ -0.001238390092879257
    x408 c_u_x995_ -0.001238390092879257
    x408 c_u_x996_ -0.001238390092879257
    x408 c_u_x997_ -0.001238390092879257
    x408 c_u_x998_ -0.001238390092879257
    x408 c_u_x999_ -0.001238390092879257
    x408 c_u_x1000_ -0.001238390092879257
    x408 c_u_x1001_ -0.001238390092879257
    x410 c_u_x802_ 1
    x410 c_u_x803_ 1
    x410 c_u_x804_ 1
    x410 c_u_x805_ 1
    x410 c_u_x806_ 1
    x410 c_u_x807_ 1
    x410 c_u_x808_ 1
    x410 c_u_x809_ 1
    x410 c_e_x898_ 0.80000000000000004
    x410 c_l_x946_ -1
    x410 c_l_x947_ -1
    x410 c_l_x948_ -1
    x410 c_l_x949_ -1
    x410 c_l_x950_ -1
    x410 c_l_x951_ -1
    x410 c_l_x952_ -1
    x410 c_l_x953_ -1
    x410 c_u_x994_ -0.001238390092879257
    x410 c_u_x995_ -0.001238390092879257
    x410 c_u_x996_ -0.001238390092879257
    x410 c_u_x997_ -0.001238390092879257
    x410 c_u_x998_ -0.001238390092879257
    x410 c_u_x999_ -0.001238390092879257
    x410 c_u_x1000_ -0.001238390092879257
    x410 c_u_x1001_ -0.001238390092879257
    x412 c_u_x803_ 1
    x412 c_u_x804_ 1
    x412 c_u_x805_ 1
    x412 c_u_x806_ 1
    x412 c_u_x807_ 1
    x412 c_u_x808_ 1
    x412 c_u_x809_ 1
    x412 c_e_x899_ 0.80000000000000004
    x412 c_l_x947_ -1
    x412 c_l_x948_ -1
    x412 c_l_x949_ -1
    x412 c_l_x950_ -1
    x412 c_l_x951_ -1
    x412 c_l_x952_ -1
    x412 c_l_x953_ -1
    x412 c_u_x995_ -0.001238390092879257
    x412 c_u_x996_ -0.001238390092879257
    x412 c_u_x997_ -0.001238390092879257
    x412 c_u_x998_ -0.001238390092879257
    x412 c_u_x999_ -0.001238390092879257
    x412 c_u_x1000_ -0.001238390092879257
    x412 c_u_x1001_ -0.001238390092879257
    x414 c_u_x804_ 1
    x414 c_u_x805_ 1
    x414 c_u_x806_ 1
    x414 c_u_x807_ 1
    x414 c_u_x808_ 1
    x414 c_u_x809_ 1
    x414 c_e_x900_ 0.80000000000000004
    x414 c_l_x948_ -1
    x414 c_l_x949_ -1
    x414 c_l_x950_ -1
    x414 c_l_x951_ -1
    x414 c_l_x952_ -1
    x414 c_l_x953_ -1
    x414 c_u_x996_ -0.001238390092879257
    x414 c_u_x997_ -0.001238390092879257
    x414 c_u_x998_ -0.001238390092879257
    x414 c_u_x999_ -0.001238390092879257
    x414 c_u_x1000_ -0.001238390092879257
    x414 c_u_x1001_ -0.001238390092879257
    x416 c_u_x805_ 1
    x416 c_u_x806_ 1
    x416 c_u_x807_ 1
    x416 c_u_x808_ 1
    x416 c_u_x809_ 1
    x416 c_e_x901_ 0.80000000000000004
    x416 c_l_x949_ -1
    x416 c_l_x950_ -1
    x416 c_l_x951_ -1
    x416 c_l_x952_ -1
    x416 c_l_x953_ -1
    x416 c_u_x997_ -0.001238390092879257
    x416 c_u_x998_ -0.001238390092879257
    x416 c_u_x999_ -0.001238390092879257
    x416 c_u_x1000_ -0.001238390092879257
    x416 c_u_x1001_ -0.001238390092879257
    x418 c_u_x806_ 1
    x418 c_u_x807_ 1
    x418 c_u_x808_ 1
    x418 c_u_x809_ 1
    x418 c_e_x902_ 0.80000000000000004
    x418 c_l_x950_ -1
    x418 c_l_x951_ -1
    x418 c_l_x952_ -1
    x418 c_l_x953_ -1
    x418 c_u_x998_ -0.001238390092879257
    x418 c_u_x999_ -0.001238390092879257
    x418 c_u_x1000_ -0.001238390092879257
    x418 c_u_x1001_ -0.001238390092879257
    x420 c_u_x807_ 1
    x420 c_u_x808_ 1
    x420 c_u_x809_ 1
    x420 c_e_x903_ 0.80000000000000004
    x420 c_l_x951_ -1
    x420 c_l_x952_ -1
    x420 c_l_x953_ -1
    x420 c_u_x999_ -0.001238390092879257
    x420 c_u_x1000_ -0.001238390092879257
    x420 c_u_x1001_ -0.001238390092879257
    x422 c_u_x808_ 1
    x422 c_u_x809_ 1
    x422 c_e_x904_ 0.80000000000000004
    x422 c_l_x952_ -1
    x422 c_l_x953_ -1
    x422 c_u_x1000_ -0.001238390092879257
    x422 c_u_x1001_ -0.001238390092879257
    x424 c_u_x809_ 1
    x424 c_e_x905_ 0.80000000000000004
    x424 c_l_x953_ -1
    x424 c_u_x1001_ -0.001238390092879257
    x426 c_u_x810_ 1
    x426 c_u_x811_ 1
    x426 c_u_x812_ 1
    x426 c_u_x813_ 1
    x426 c_u_x814_ 1
    x426 c_u_x815_ 1
    x426 c_u_x816_ 1
    x426 c_u_x817_ 1
    x426 c_u_x818_ 1
    x426 c_u_x819_ 1
    x426 c_u_x820_ 1
    x426 c_u_x821_ 1
    x426 c_e_x906_ 0.63
    x426 c_l_x954_ -1
    x426 c_l_x955_ -1
    x426 c_l_x956_ -1
    x426 c_l_x957_ -1
    x426 c_l_x958_ -1
    x426 c_l_x959_ -1
    x426 c_l_x960_ -1
    x426 c_l_x961_ -1
    x426 c_l_x962_ -1
    x426 c_l_x963_ -1
    x426 c_l_x964_ -1
    x426 c_l_x965_ -1
    x426 c_u_x1002_ -0.0011210762331838565
    x426 c_u_x1003_ -0.0011210762331838565
    x426 c_u_x1004_ -0.0011210762331838565
    x426 c_u_x1005_ -0.0011210762331838565
    x426 c_u_x1006_ -0.0011210762331838565
    x426 c_u_x1007_ -0.0011210762331838565
    x426 c_u_x1008_ -0.0011210762331838565
    x426 c_u_x1009_ -0.0011210762331838565
    x426 c_u_x1010_ -0.0011210762331838565
    x426 c_u_x1011_ -0.0011210762331838565
    x426 c_u_x1012_ -0.0011210762331838565
    x426 c_u_x1013_ -0.0011210762331838565
    x428 c_u_x811_ 1
    x428 c_u_x812_ 1
    x428 c_u_x813_ 1
    x428 c_u_x814_ 1
    x428 c_u_x815_ 1
    x428 c_u_x816_ 1
    x428 c_u_x817_ 1
    x428 c_u_x818_ 1
    x428 c_u_x819_ 1
    x428 c_u_x820_ 1
    x428 c_u_x821_ 1
    x428 c_e_x907_ 0.63
    x428 c_l_x955_ -1
    x428 c_l_x956_ -1
    x428 c_l_x957_ -1
    x428 c_l_x958_ -1
    x428 c_l_x959_ -1
    x428 c_l_x960_ -1
    x428 c_l_x961_ -1
    x428 c_l_x962_ -1
    x428 c_l_x963_ -1
    x428 c_l_x964_ -1
    x428 c_l_x965_ -1
    x428 c_u_x1003_ -0.0011210762331838565
    x428 c_u_x1004_ -0.0011210762331838565
    x428 c_u_x1005_ -0.0011210762331838565
    x428 c_u_x1006_ -0.0011210762331838565
    x428 c_u_x1007_ -0.0011210762331838565
    x428 c_u_x1008_ -0.0011210762331838565
    x428 c_u_x1009_ -0.0011210762331838565
    x428 c_u_x1010_ -0.0011210762331838565
    x428 c_u_x1011_ -0.0011210762331838565
    x428 c_u_x1012_ -0.0011210762331838565
    x428 c_u_x1013_ -0.0011210762331838565
    x430 c_u_x812_ 1
    x430 c_u_x813_ 1
    x430 c_u_x814_ 1
    x430 c_u_x815_ 1
    x430 c_u_x816_ 1
    x430 c_u_x817_ 1
    x430 c_u_x818_ 1
    x430 c_u_x819_ 1
    x430 c_u_x820_ 1
    x430 c_u_x821_ 1
    x430 c_e_x908_ 0.63
    x430 c_l_x956_ -1
    x430 c_l_x957_ -1
    x430 c_l_x958_ -1
    x430 c_l_x959_ -1
    x430 c_l_x960_ -1
    x430 c_l_x961_ -1
    x430 c_l_x962_ -1
    x430 c_l_x963_ -1
    x430 c_l_x964_ -1
    x430 c_l_x965_ -1
    x430 c_u_x1004_ -0.0011210762331838565
    x430 c_u_x1005_ -0.0011210762331838565
    x430 c_u_x1006_ -0.0011210762331838565
    x430 c_u_x1007_ -0.0011210762331838565
    x430 c_u_x1008_ -0.0011210762331838565
    x430 c_u_x1009_ -0.0011210762331838565
    x430 c_u_x1010_ -0.0011210762331838565
    x430 c_u_x1011_ -0.0011210762331838565
    x430 c_u_x1012_ -0.0011210762331838565
    x430 c_u_x1013_ -0.0011210762331838565
    x432 c_u_x813_ 1
    x432 c_u_x814_ 1
    x432 c_u_x815_ 1
    x432 c_u_x816_ 1
    x432 c_u_x817_ 1
    x432 c_u_x818_ 1
    x432 c_u_x819_ 1
    x432 c_u_x820_ 1
    x432 c_u_x821_ 1
    x432 c_e_x909_ 0.63
    x432 c_l_x957_ -1
    x432 c_l_x958_ -1
    x432 c_l_x959_ -1
    x432 c_l_x960_ -1
    x432 c_l_x961_ -1
    x432 c_l_x962_ -1
    x432 c_l_x963_ -1
    x432 c_l_x964_ -1
    x432 c_l_x965_ -1
    x432 c_u_x1005_ -0.0011210762331838565
    x432 c_u_x1006_ -0.0011210762331838565
    x432 c_u_x1007_ -0.0011210762331838565
    x432 c_u_x1008_ -0.0011210762331838565
    x432 c_u_x1009_ -0.0011210762331838565
    x432 c_u_x1010_ -0.0011210762331838565
    x432 c_u_x1011_ -0.0011210762331838565
    x432 c_u_x1012_ -0.0011210762331838565
    x432 c_u_x1013_ -0.0011210762331838565
    x434 c_u_x814_ 1
    x434 c_u_x815_ 1
    x434 c_u_x816_ 1
    x434 c_u_x817_ 1
    x434 c_u_x818_ 1
    x434 c_u_x819_ 1
    x434 c_u_x820_ 1
    x434 c_u_x821_ 1
    x434 c_e_x910_ 0.63
    x434 c_l_x958_ -1
    x434 c_l_x959_ -1
    x434 c_l_x960_ -1
    x434 c_l_x961_ -1
    x434 c_l_x962_ -1
    x434 c_l_x963_ -1
    x434 c_l_x964_ -1
    x434 c_l_x965_ -1
    x434 c_u_x1006_ -0.0011210762331838565
    x434 c_u_x1007_ -0.0011210762331838565
    x434 c_u_x1008_ -0.0011210762331838565
    x434 c_u_x1009_ -0.0011210762331838565
    x434 c_u_x1010_ -0.0011210762331838565
    x434 c_u_x1011_ -0.0011210762331838565
    x434 c_u_x1012_ -0.0011210762331838565
    x434 c_u_x1013_ -0.0011210762331838565
    x436 c_u_x815_ 1
    x436 c_u_x816_ 1
    x436 c_u_x817_ 1
    x436 c_u_x818_ 1
    x436 c_u_x819_ 1
    x436 c_u_x820_ 1
    x436 c_u_x821_ 1
    x436 c_e_x911_ 0.63
    x436 c_l_x959_ -1
    x436 c_l_x960_ -1
    x436 c_l_x961_ -1
    x436 c_l_x962_ -1
    x436 c_l_x963_ -1
    x436 c_l_x964_ -1
    x436 c_l_x965_ -1
    x436 c_u_x1007_ -0.0011210762331838565
    x436 c_u_x1008_ -0.0011210762331838565
    x436 c_u_x1009_ -0.0011210762331838565
    x436 c_u_x1010_ -0.0011210762331838565
    x436 c_u_x1011_ -0.0011210762331838565
    x436 c_u_x1012_ -0.0011210762331838565
    x436 c_u_x1013_ -0.0011210762331838565
    x438 c_u_x816_ 1
    x438 c_u_x817_ 1
    x438 c_u_x818_ 1
    x438 c_u_x819_ 1
    x438 c_u_x820_ 1
    x438 c_u_x821_ 1
    x438 c_e_x912_ 0.63
    x438 c_l_x960_ -1
    x438 c_l_x961_ -1
    x438 c_l_x962_ -1
    x438 c_l_x963_ -1
    x438 c_l_x964_ -1
    x438 c_l_x965_ -1
    x438 c_u_x1008_ -0.0011210762331838565
    x438 c_u_x1009_ -0.0011210762331838565
    x438 c_u_x1010_ -0.0011210762331838565
    x438 c_u_x1011_ -0.0011210762331838565
    x438 c_u_x1012_ -0.0011210762331838565
    x438 c_u_x1013_ -0.0011210762331838565
    x440 c_u_x817_ 1
    x440 c_u_x818_ 1
    x440 c_u_x819_ 1
    x440 c_u_x820_ 1
    x440 c_u_x821_ 1
    x440 c_e_x913_ 0.63
    x440 c_l_x961_ -1
    x440 c_l_x962_ -1
    x440 c_l_x963_ -1
    x440 c_l_x964_ -1
    x440 c_l_x965_ -1
    x440 c_u_x1009_ -0.0011210762331838565
    x440 c_u_x1010_ -0.0011210762331838565
    x440 c_u_x1011_ -0.0011210762331838565
    x440 c_u_x1012_ -0.0011210762331838565
    x440 c_u_x1013_ -0.0011210762331838565
    x442 c_u_x818_ 1
    x442 c_u_x819_ 1
    x442 c_u_x820_ 1
    x442 c_u_x821_ 1
    x442 c_e_x914_ 0.63
    x442 c_l_x962_ -1
    x442 c_l_x963_ -1
    x442 c_l_x964_ -1
    x442 c_l_x965_ -1
    x442 c_u_x1010_ -0.0011210762331838565
    x442 c_u_x1011_ -0.0011210762331838565
    x442 c_u_x1012_ -0.0011210762331838565
    x442 c_u_x1013_ -0.0011210762331838565
    x444 c_u_x819_ 1
    x444 c_u_x820_ 1
    x444 c_u_x821_ 1
    x444 c_e_x915_ 0.63
    x444 c_l_x963_ -1
    x444 c_l_x964_ -1
    x444 c_l_x965_ -1
    x444 c_u_x1011_ -0.0011210762331838565
    x444 c_u_x1012_ -0.0011210762331838565
    x444 c_u_x1013_ -0.0011210762331838565
    x446 c_u_x820_ 1
    x446 c_u_x821_ 1
    x446 c_e_x916_ 0.63
    x446 c_l_x964_ -1
    x446 c_l_x965_ -1
    x446 c_u_x1012_ -0.0011210762331838565
    x446 c_u_x1013_ -0.0011210762331838565
    x448 c_u_x821_ 1
    x448 c_e_x917_ 0.63
    x448 c_l_x965_ -1
    x448 c_u_x1013_ -0.0011210762331838565
    x450 c_u_x822_ 1
    x450 c_u_x823_ 1
    x450 c_u_x824_ 1
    x450 c_u_x825_ 1
    x450 c_u_x826_ 1
    x450 c_u_x827_ 1
    x450 c_u_x828_ 1
    x450 c_u_x829_ 1
    x450 c_u_x830_ 1
    x450 c_u_x831_ 1
    x450 c_u_x832_ 1
    x450 c_u_x833_ 1
    x450 c_e_x918_ 0.77000000000000002
    x450 c_l_x966_ -1
    x450 c_l_x967_ -1
    x450 c_l_x968_ -1
    x450 c_l_x969_ -1
    x450 c_l_x970_ -1
    x450 c_l_x971_ -1
    x450 c_l_x972_ -1
    x450 c_l_x973_ -1
    x450 c_l_x974_ -1
    x450 c_l_x975_ -1
    x450 c_l_x976_ -1
    x450 c_l_x977_ -1
    x450 c_u_x1014_ -0.0019120458891013384
    x450 c_u_x1015_ -0.0019120458891013384
    x450 c_u_x1016_ -0.0019120458891013384
    x450 c_u_x1017_ -0.0019120458891013384
    x450 c_u_x1018_ -0.0019120458891013384
    x450 c_u_x1019_ -0.0019120458891013384
    x450 c_u_x1020_ -0.0019120458891013384
    x450 c_u_x1021_ -0.0019120458891013384
    x450 c_u_x1022_ -0.0019120458891013384
    x450 c_u_x1023_ -0.0019120458891013384
    x450 c_u_x1024_ -0.0019120458891013384
    x450 c_u_x1025_ -0.0019120458891013384
    x452 c_u_x823_ 1
    x452 c_u_x824_ 1
    x452 c_u_x825_ 1
    x452 c_u_x826_ 1
    x452 c_u_x827_ 1
    x452 c_u_x828_ 1
    x452 c_u_x829_ 1
    x452 c_u_x830_ 1
    x452 c_u_x831_ 1
    x452 c_u_x832_ 1
    x452 c_u_x833_ 1
    x452 c_e_x919_ 0.77000000000000002
    x452 c_l_x967_ -1
    x452 c_l_x968_ -1
    x452 c_l_x969_ -1
    x452 c_l_x970_ -1
    x452 c_l_x971_ -1
    x452 c_l_x972_ -1
    x452 c_l_x973_ -1
    x452 c_l_x974_ -1
    x452 c_l_x975_ -1
    x452 c_l_x976_ -1
    x452 c_l_x977_ -1
    x452 c_u_x1015_ -0.0019120458891013384
    x452 c_u_x1016_ -0.0019120458891013384
    x452 c_u_x1017_ -0.0019120458891013384
    x452 c_u_x1018_ -0.0019120458891013384
    x452 c_u_x1019_ -0.0019120458891013384
    x452 c_u_x1020_ -0.0019120458891013384
    x452 c_u_x1021_ -0.0019120458891013384
    x452 c_u_x1022_ -0.0019120458891013384
    x452 c_u_x1023_ -0.0019120458891013384
    x452 c_u_x1024_ -0.0019120458891013384
    x452 c_u_x1025_ -0.0019120458891013384
    x454 c_u_x824_ 1
    x454 c_u_x825_ 1
    x454 c_u_x826_ 1
    x454 c_u_x827_ 1
    x454 c_u_x828_ 1
    x454 c_u_x829_ 1
    x454 c_u_x830_ 1
    x454 c_u_x831_ 1
    x454 c_u_x832_ 1
    x454 c_u_x833_ 1
    x454 c_e_x920_ 0.77000000000000002
    x454 c_l_x968_ -1
    x454 c_l_x969_ -1
    x454 c_l_x970_ -1
    x454 c_l_x971_ -1
    x454 c_l_x972_ -1
    x454 c_l_x973_ -1
    x454 c_l_x974_ -1
    x454 c_l_x975_ -1
    x454 c_l_x976_ -1
    x454 c_l_x977_ -1
    x454 c_u_x1016_ -0.0019120458891013384
    x454 c_u_x1017_ -0.0019120458891013384
    x454 c_u_x1018_ -0.0019120458891013384
    x454 c_u_x1019_ -0.0019120458891013384
    x454 c_u_x1020_ -0.0019120458891013384
    x454 c_u_x1021_ -0.0019120458891013384
    x454 c_u_x1022_ -0.0019120458891013384
    x454 c_u_x1023_ -0.0019120458891013384
    x454 c_u_x1024_ -0.0019120458891013384
    x454 c_u_x1025_ -0.0019120458891013384
    x456 c_u_x825_ 1
    x456 c_u_x826_ 1
    x456 c_u_x827_ 1
    x456 c_u_x828_ 1
    x456 c_u_x829_ 1
    x456 c_u_x830_ 1
    x456 c_u_x831_ 1
    x456 c_u_x832_ 1
    x456 c_u_x833_ 1
    x456 c_e_x921_ 0.77000000000000002
    x456 c_l_x969_ -1
    x456 c_l_x970_ -1
    x456 c_l_x971_ -1
    x456 c_l_x972_ -1
    x456 c_l_x973_ -1
    x456 c_l_x974_ -1
    x456 c_l_x975_ -1
    x456 c_l_x976_ -1
    x456 c_l_x977_ -1
    x456 c_u_x1017_ -0.0019120458891013384
    x456 c_u_x1018_ -0.0019120458891013384
    x456 c_u_x1019_ -0.0019120458891013384
    x456 c_u_x1020_ -0.0019120458891013384
    x456 c_u_x1021_ -0.0019120458891013384
    x456 c_u_x1022_ -0.0019120458891013384
    x456 c_u_x1023_ -0.0019120458891013384
    x456 c_u_x1024_ -0.0019120458891013384
    x456 c_u_x1025_ -0.0019120458891013384
    x458 c_u_x826_ 1
    x458 c_u_x827_ 1
    x458 c_u_x828_ 1
    x458 c_u_x829_ 1
    x458 c_u_x830_ 1
    x458 c_u_x831_ 1
    x458 c_u_x832_ 1
    x458 c_u_x833_ 1
    x458 c_e_x922_ 0.77000000000000002
    x458 c_l_x970_ -1
    x458 c_l_x971_ -1
    x458 c_l_x972_ -1
    x458 c_l_x973_ -1
    x458 c_l_x974_ -1
    x458 c_l_x975_ -1
    x458 c_l_x976_ -1
    x458 c_l_x977_ -1
    x458 c_u_x1018_ -0.0019120458891013384
    x458 c_u_x1019_ -0.0019120458891013384
    x458 c_u_x1020_ -0.0019120458891013384
    x458 c_u_x1021_ -0.0019120458891013384
    x458 c_u_x1022_ -0.0019120458891013384
    x458 c_u_x1023_ -0.0019120458891013384
    x458 c_u_x1024_ -0.0019120458891013384
    x458 c_u_x1025_ -0.0019120458891013384
    x460 c_u_x827_ 1
    x460 c_u_x828_ 1
    x460 c_u_x829_ 1
    x460 c_u_x830_ 1
    x460 c_u_x831_ 1
    x460 c_u_x832_ 1
    x460 c_u_x833_ 1
    x460 c_e_x923_ 0.77000000000000002
    x460 c_l_x971_ -1
    x460 c_l_x972_ -1
    x460 c_l_x973_ -1
    x460 c_l_x974_ -1
    x460 c_l_x975_ -1
    x460 c_l_x976_ -1
    x460 c_l_x977_ -1
    x460 c_u_x1019_ -0.0019120458891013384
    x460 c_u_x1020_ -0.0019120458891013384
    x460 c_u_x1021_ -0.0019120458891013384
    x460 c_u_x1022_ -0.0019120458891013384
    x460 c_u_x1023_ -0.0019120458891013384
    x460 c_u_x1024_ -0.0019120458891013384
    x460 c_u_x1025_ -0.0019120458891013384
    x462 c_u_x828_ 1
    x462 c_u_x829_ 1
    x462 c_u_x830_ 1
    x462 c_u_x831_ 1
    x462 c_u_x832_ 1
    x462 c_u_x833_ 1
    x462 c_e_x924_ 0.77000000000000002
    x462 c_l_x972_ -1
    x462 c_l_x973_ -1
    x462 c_l_x974_ -1
    x462 c_l_x975_ -1
    x462 c_l_x976_ -1
    x462 c_l_x977_ -1
    x462 c_u_x1020_ -0.0019120458891013384
    x462 c_u_x1021_ -0.0019120458891013384
    x462 c_u_x1022_ -0.0019120458891013384
    x462 c_u_x1023_ -0.0019120458891013384
    x462 c_u_x1024_ -0.0019120458891013384
    x462 c_u_x1025_ -0.0019120458891013384
    x464 c_u_x829_ 1
    x464 c_u_x830_ 1
    x464 c_u_x831_ 1
    x464 c_u_x832_ 1
    x464 c_u_x833_ 1
    x464 c_e_x925_ 0.77000000000000002
    x464 c_l_x973_ -1
    x464 c_l_x974_ -1
    x464 c_l_x975_ -1
    x464 c_l_x976_ -1
    x464 c_l_x977_ -1
    x464 c_u_x1021_ -0.0019120458891013384
    x464 c_u_x1022_ -0.0019120458891013384
    x464 c_u_x1023_ -0.0019120458891013384
    x464 c_u_x1024_ -0.0019120458891013384
    x464 c_u_x1025_ -0.0019120458891013384
    x466 c_u_x830_ 1
    x466 c_u_x831_ 1
    x466 c_u_x832_ 1
    x466 c_u_x833_ 1
    x466 c_e_x926_ 0.77000000000000002
    x466 c_l_x974_ -1
    x466 c_l_x975_ -1
    x466 c_l_x976_ -1
    x466 c_l_x977_ -1
    x466 c_u_x1022_ -0.0019120458891013384
    x466 c_u_x1023_ -0.0019120458891013384
    x466 c_u_x1024_ -0.0019120458891013384
    x466 c_u_x1025_ -0.0019120458891013384
    x468 c_u_x831_ 1
    x468 c_u_x832_ 1
    x468 c_u_x833_ 1
    x468 c_e_x927_ 0.77000000000000002
    x468 c_l_x975_ -1
    x468 c_l_x976_ -1
    x468 c_l_x977_ -1
    x468 c_u_x1023_ -0.0019120458891013384
    x468 c_u_x1024_ -0.0019120458891013384
    x468 c_u_x1025_ -0.0019120458891013384
    x470 c_u_x832_ 1
    x470 c_u_x833_ 1
    x470 c_e_x928_ 0.77000000000000002
    x470 c_l_x976_ -1
    x470 c_l_x977_ -1
    x470 c_u_x1024_ -0.0019120458891013384
    x470 c_u_x1025_ -0.0019120458891013384
    x472 c_u_x833_ 1
    x472 c_e_x929_ 0.77000000000000002
    x472 c_l_x977_ -1
    x472 c_u_x1025_ -0.0019120458891013384
    x474 c_u_x834_ 1
    x474 c_u_x835_ 1
    x474 c_u_x836_ 1
    x474 c_u_x837_ 1
    x474 c_u_x838_ 1
    x474 c_u_x839_ 1
    x474 c_u_x840_ 1
    x474 c_u_x841_ 1
    x474 c_u_x842_ 1
    x474 c_u_x843_ 1
    x474 c_u_x844_ 1
    x474 c_u_x845_ 1
    x474 c_e_x930_ 0.90000000000000002
    x474 c_l_x978_ -1
    x474 c_l_x979_ -1
    x474 c_l_x980_ -1
    x474 c_l_x981_ -1
    x474 c_l_x982_ -1
    x474 c_l_x983_ -1
    x474 c_l_x984_ -1
    x474 c_l_x985_ -1
    x474 c_l_x986_ -1
    x474 c_l_x987_ -1
    x474 c_l_x988_ -1
    x474 c_l_x989_ -1
    x474 c_u_x1026_ -0.00091827364554637281
    x474 c_u_x1027_ -0.00091827364554637281
    x474 c_u_x1028_ -0.00091827364554637281
    x474 c_u_x1029_ -0.00091827364554637281
    x474 c_u_x1030_ -0.00091827364554637281
    x474 c_u_x1031_ -0.00091827364554637281
    x474 c_u_x1032_ -0.00091827364554637281
    x474 c_u_x1033_ -0.00091827364554637281
    x474 c_u_x1034_ -0.00091827364554637281
    x474 c_u_x1035_ -0.00091827364554637281
    x474 c_u_x1036_ -0.00091827364554637281
    x474 c_u_x1037_ -0.00091827364554637281
    x476 c_u_x835_ 1
    x476 c_u_x836_ 1
    x476 c_u_x837_ 1
    x476 c_u_x838_ 1
    x476 c_u_x839_ 1
    x476 c_u_x840_ 1
    x476 c_u_x841_ 1
    x476 c_u_x842_ 1
    x476 c_u_x843_ 1
    x476 c_u_x844_ 1
    x476 c_u_x845_ 1
    x476 c_e_x931_ 0.90000000000000002
    x476 c_l_x979_ -1
    x476 c_l_x980_ -1
    x476 c_l_x981_ -1
    x476 c_l_x982_ -1
    x476 c_l_x983_ -1
    x476 c_l_x984_ -1
    x476 c_l_x985_ -1
    x476 c_l_x986_ -1
    x476 c_l_x987_ -1
    x476 c_l_x988_ -1
    x476 c_l_x989_ -1
    x476 c_u_x1027_ -0.00091827364554637281
    x476 c_u_x1028_ -0.00091827364554637281
    x476 c_u_x1029_ -0.00091827364554637281
    x476 c_u_x1030_ -0.00091827364554637281
    x476 c_u_x1031_ -0.00091827364554637281
    x476 c_u_x1032_ -0.00091827364554637281
    x476 c_u_x1033_ -0.00091827364554637281
    x476 c_u_x1034_ -0.00091827364554637281
    x476 c_u_x1035_ -0.00091827364554637281
    x476 c_u_x1036_ -0.00091827364554637281
    x476 c_u_x1037_ -0.00091827364554637281
    x478 c_u_x836_ 1
    x478 c_u_x837_ 1
    x478 c_u_x838_ 1
    x478 c_u_x839_ 1
    x478 c_u_x840_ 1
    x478 c_u_x841_ 1
    x478 c_u_x842_ 1
    x478 c_u_x843_ 1
    x478 c_u_x844_ 1
    x478 c_u_x845_ 1
    x478 c_e_x932_ 0.90000000000000002
    x478 c_l_x980_ -1
    x478 c_l_x981_ -1
    x478 c_l_x982_ -1
    x478 c_l_x983_ -1
    x478 c_l_x984_ -1
    x478 c_l_x985_ -1
    x478 c_l_x986_ -1
    x478 c_l_x987_ -1
    x478 c_l_x988_ -1
    x478 c_l_x989_ -1
    x478 c_u_x1028_ -0.00091827364554637281
    x478 c_u_x1029_ -0.00091827364554637281
    x478 c_u_x1030_ -0.00091827364554637281
    x478 c_u_x1031_ -0.00091827364554637281
    x478 c_u_x1032_ -0.00091827364554637281
    x478 c_u_x1033_ -0.00091827364554637281
    x478 c_u_x1034_ -0.00091827364554637281
    x478 c_u_x1035_ -0.00091827364554637281
    x478 c_u_x1036_ -0.00091827364554637281
    x478 c_u_x1037_ -0.00091827364554637281
    x480 c_u_x837_ 1
    x480 c_u_x838_ 1
    x480 c_u_x839_ 1
    x480 c_u_x840_ 1
    x480 c_u_x841_ 1
    x480 c_u_x842_ 1
    x480 c_u_x843_ 1
    x480 c_u_x844_ 1
    x480 c_u_x845_ 1
    x480 c_e_x933_ 0.90000000000000002
    x480 c_l_x981_ -1
    x480 c_l_x982_ -1
    x480 c_l_x983_ -1
    x480 c_l_x984_ -1
    x480 c_l_x985_ -1
    x480 c_l_x986_ -1
    x480 c_l_x987_ -1
    x480 c_l_x988_ -1
    x480 c_l_x989_ -1
    x480 c_u_x1029_ -0.00091827364554637281
    x480 c_u_x1030_ -0.00091827364554637281
    x480 c_u_x1031_ -0.00091827364554637281
    x480 c_u_x1032_ -0.00091827364554637281
    x480 c_u_x1033_ -0.00091827364554637281
    x480 c_u_x1034_ -0.00091827364554637281
    x480 c_u_x1035_ -0.00091827364554637281
    x480 c_u_x1036_ -0.00091827364554637281
    x480 c_u_x1037_ -0.00091827364554637281
    x482 c_u_x838_ 1
    x482 c_u_x839_ 1
    x482 c_u_x840_ 1
    x482 c_u_x841_ 1
    x482 c_u_x842_ 1
    x482 c_u_x843_ 1
    x482 c_u_x844_ 1
    x482 c_u_x845_ 1
    x482 c_e_x934_ 0.90000000000000002
    x482 c_l_x982_ -1
    x482 c_l_x983_ -1
    x482 c_l_x984_ -1
    x482 c_l_x985_ -1
    x482 c_l_x986_ -1
    x482 c_l_x987_ -1
    x482 c_l_x988_ -1
    x482 c_l_x989_ -1
    x482 c_u_x1030_ -0.00091827364554637281
    x482 c_u_x1031_ -0.00091827364554637281
    x482 c_u_x1032_ -0.00091827364554637281
    x482 c_u_x1033_ -0.00091827364554637281
    x482 c_u_x1034_ -0.00091827364554637281
    x482 c_u_x1035_ -0.00091827364554637281
    x482 c_u_x1036_ -0.00091827364554637281
    x482 c_u_x1037_ -0.00091827364554637281
    x484 c_u_x839_ 1
    x484 c_u_x840_ 1
    x484 c_u_x841_ 1
    x484 c_u_x842_ 1
    x484 c_u_x843_ 1
    x484 c_u_x844_ 1
    x484 c_u_x845_ 1
    x484 c_e_x935_ 0.90000000000000002
    x484 c_l_x983_ -1
    x484 c_l_x984_ -1
    x484 c_l_x985_ -1
    x484 c_l_x986_ -1
    x484 c_l_x987_ -1
    x484 c_l_x988_ -1
    x484 c_l_x989_ -1
    x484 c_u_x1031_ -0.00091827364554637281
    x484 c_u_x1032_ -0.00091827364554637281
    x484 c_u_x1033_ -0.00091827364554637281
    x484 c_u_x1034_ -0.00091827364554637281
    x484 c_u_x1035_ -0.00091827364554637281
    x484 c_u_x1036_ -0.00091827364554637281
    x484 c_u_x1037_ -0.00091827364554637281
    x486 c_u_x840_ 1
    x486 c_u_x841_ 1
    x486 c_u_x842_ 1
    x486 c_u_x843_ 1
    x486 c_u_x844_ 1
    x486 c_u_x845_ 1
    x486 c_e_x936_ 0.90000000000000002
    x486 c_l_x984_ -1
    x486 c_l_x985_ -1
    x486 c_l_x986_ -1
    x486 c_l_x987_ -1
    x486 c_l_x988_ -1
    x486 c_l_x989_ -1
    x486 c_u_x1032_ -0.00091827364554637281
    x486 c_u_x1033_ -0.00091827364554637281
    x486 c_u_x1034_ -0.00091827364554637281
    x486 c_u_x1035_ -0.00091827364554637281
    x486 c_u_x1036_ -0.00091827364554637281
    x486 c_u_x1037_ -0.00091827364554637281
    x488 c_u_x841_ 1
    x488 c_u_x842_ 1
    x488 c_u_x843_ 1
    x488 c_u_x844_ 1
    x488 c_u_x845_ 1
    x488 c_e_x937_ 0.90000000000000002
    x488 c_l_x985_ -1
    x488 c_l_x986_ -1
    x488 c_l_x987_ -1
    x488 c_l_x988_ -1
    x488 c_l_x989_ -1
    x488 c_u_x1033_ -0.00091827364554637281
    x488 c_u_x1034_ -0.00091827364554637281
    x488 c_u_x1035_ -0.00091827364554637281
    x488 c_u_x1036_ -0.00091827364554637281
    x488 c_u_x1037_ -0.00091827364554637281
    x490 c_u_x842_ 1
    x490 c_u_x843_ 1
    x490 c_u_x844_ 1
    x490 c_u_x845_ 1
    x490 c_e_x938_ 0.90000000000000002
    x490 c_l_x986_ -1
    x490 c_l_x987_ -1
    x490 c_l_x988_ -1
    x490 c_l_x989_ -1
    x490 c_u_x1034_ -0.00091827364554637281
    x490 c_u_x1035_ -0.00091827364554637281
    x490 c_u_x1036_ -0.00091827364554637281
    x490 c_u_x1037_ -0.00091827364554637281
    x492 c_u_x843_ 1
    x492 c_u_x844_ 1
    x492 c_u_x845_ 1
    x492 c_e_x939_ 0.90000000000000002
    x492 c_l_x987_ -1
    x492 c_l_x988_ -1
    x492 c_l_x989_ -1
    x492 c_u_x1035_ -0.00091827364554637281
    x492 c_u_x1036_ -0.00091827364554637281
    x492 c_u_x1037_ -0.00091827364554637281
    x494 c_u_x844_ 1
    x494 c_u_x845_ 1
    x494 c_e_x940_ 0.90000000000000002
    x494 c_l_x988_ -1
    x494 c_l_x989_ -1
    x494 c_u_x1036_ -0.00091827364554637281
    x494 c_u_x1037_ -0.00091827364554637281
    x496 c_u_x845_ 1
    x496 c_e_x941_ 0.90000000000000002
    x496 c_l_x989_ -1
    x496 c_u_x1037_ -0.00091827364554637281
    x497 c_e_x894_ 1
    x497 OBJ 21
    x498 c_e_x895_ 1
    x498 OBJ 20
    x499 c_e_x896_ 1
    x499 OBJ 19
    x500 c_e_x897_ 1
    x500 OBJ 18
    x501 c_e_x898_ 1
    x501 OBJ 17
    x502 c_e_x899_ 1
    x502 OBJ 16
    x503 c_e_x900_ 1
    x503 OBJ 15
    x504 c_e_x901_ 1
    x504 OBJ 14
    x505 c_e_x902_ 1
    x505 OBJ 13
    x506 c_e_x903_ 1
    x506 OBJ 12
    x507 c_e_x904_ 1
    x507 OBJ 11
    x508 c_e_x905_ 1
    x508 OBJ 10
    x509 c_e_x906_ 1
    x509 OBJ 84
    x510 c_e_x907_ 1
    x510 OBJ 80
    x511 c_e_x908_ 1
    x511 OBJ 76
    x512 c_e_x909_ 1
    x512 OBJ 72
    x513 c_e_x910_ 1
    x513 OBJ 68
    x514 c_e_x911_ 1
    x514 OBJ 64
    x515 c_e_x912_ 1
    x515 OBJ 60
    x516 c_e_x913_ 1
    x516 OBJ 56
    x517 c_e_x914_ 1
    x517 OBJ 52
    x518 c_e_x915_ 1
    x518 OBJ 48
    x519 c_e_x916_ 1
    x519 OBJ 44
    x520 c_e_x917_ 1
    x520 OBJ 40
    x521 c_e_x918_ 1
    x521 OBJ 168
    x522 c_e_x919_ 1
    x522 OBJ 160
    x523 c_e_x920_ 1
    x523 OBJ 152
    x524 c_e_x921_ 1
    x524 OBJ 144
    x525 c_e_x922_ 1
    x525 OBJ 136
    x526 c_e_x923_ 1
    x526 OBJ 128
    x527 c_e_x924_ 1
    x527 OBJ 120
    x528 c_e_x925_ 1
    x528 OBJ 112
    x529 c_e_x926_ 1
    x529 OBJ 104
    x530 c_e_x927_ 1
    x530 OBJ 96
    x531 c_e_x928_ 1
    x531 OBJ 88
    x532 c_e_x929_ 1
    x532 OBJ 80
    x533 c_e_x930_ 1
    x533 OBJ 84
    x534 c_e_x931_ 1
    x534 OBJ 80
    x535 c_e_x932_ 1
    x535 OBJ 76
    x536 c_e_x933_ 1
    x536 OBJ 72
    x537 c_e_x934_ 1
    x537 OBJ 68
    x538 c_e_x935_ 1
    x538 OBJ 64
    x539 c_e_x936_ 1
    x539 OBJ 60
    x540 c_e_x937_ 1
    x540 OBJ 56
    x541 c_e_x938_ 1
    x541 OBJ 52
    x542 c_e_x939_ 1
    x542 OBJ 48
    x543 c_e_x940_ 1
    x543 OBJ 44
    x544 c_e_x941_ 1
    x544 OBJ 40
    x545 c_l_x942_ -1
    x545 OBJ 5
    x546 c_l_x943_ -1
    x546 OBJ 5
    x547 c_l_x944_ -1
    x547 OBJ 5
    x548 c_l_x945_ -1
    x548 OBJ 5
    x549 c_l_x946_ -1
    x549 OBJ 5
    x550 c_l_x947_ -1
    x550 OBJ 5
    x551 c_l_x948_ -1
    x551 OBJ 5
    x552 c_l_x949_ -1
    x552 OBJ 5
    x553 c_l_x950_ -1
    x553 OBJ 5
    x554 c_l_x951_ -1
    x554 OBJ 5
    x555 c_l_x952_ -1
    x555 OBJ 5
    x556 c_l_x953_ -1
    x556 OBJ 5
    x557 c_l_x954_ -1
    x557 OBJ 20
    x558 c_l_x955_ -1
    x558 OBJ 20
    x559 c_l_x956_ -1
    x559 OBJ 20
    x560 c_l_x957_ -1
    x560 OBJ 20
    x561 c_l_x958_ -1
    x561 OBJ 20
    x562 c_l_x959_ -1
    x562 OBJ 20
    x563 c_l_x960_ -1
    x563 OBJ 20
    x564 c_l_x961_ -1
    x564 OBJ 20
    x565 c_l_x962_ -1
    x565 OBJ 20
    x566 c_l_x963_ -1
    x566 OBJ 20
    x567 c_l_x964_ -1
    x567 OBJ 20
    x568 c_l_x965_ -1
    x568 OBJ 20
    x569 c_l_x966_ -1
    x569 OBJ 40
    x570 c_l_x967_ -1
    x570 OBJ 40
    x571 c_l_x968_ -1
    x571 OBJ 40
    x572 c_l_x969_ -1
    x572 OBJ 40
    x573 c_l_x970_ -1
    x573 OBJ 40
    x574 c_l_x971_ -1
    x574 OBJ 40
    x575 c_l_x972_ -1
    x575 OBJ 40
    x576 c_l_x973_ -1
    x576 OBJ 40
    x577 c_l_x974_ -1
    x577 OBJ 40
    x578 c_l_x975_ -1
    x578 OBJ 40
    x579 c_l_x976_ -1
    x579 OBJ 40
    x580 c_l_x977_ -1
    x580 OBJ 40
    x581 c_l_x978_ -1
    x581 OBJ 20
    x582 c_l_x979_ -1
    x582 OBJ 20
    x583 c_l_x980_ -1
    x583 OBJ 20
    x584 c_l_x981_ -1
    x584 OBJ 20
    x585 c_l_x982_ -1
    x585 OBJ 20
    x586 c_l_x983_ -1
    x586 OBJ 20
    x587 c_l_x984_ -1
    x587 OBJ 20
    x588 c_l_x985_ -1
    x588 OBJ 20
    x589 c_l_x986_ -1
    x589 OBJ 20
    x590 c_l_x987_ -1
    x590 OBJ 20
    x591 c_l_x988_ -1
    x591 OBJ 20
    x592 c_l_x989_ -1
    x592 OBJ 20
    x593 c_u_x990_ -1
    x593 OBJ 5
    x594 c_u_x991_ -1
    x594 OBJ 5
    x595 c_u_x992_ -1
    x595 OBJ 5
    x596 c_u_x993_ -1
    x596 OBJ 5
    x597 c_u_x994_ -1
    x597 OBJ 5
    x598 c_u_x995_ -1
    x598 OBJ 5
    x599 c_u_x996_ -1
    x599 OBJ 5
    x600 c_u_x997_ -1
    x600 OBJ 5
    x601 c_u_x998_ -1
    x601 OBJ 5
    x602 c_u_x999_ -1
    x602 OBJ 5
    x603 c_u_x1000_ -1
    x603 OBJ 5
    x604 c_u_x1001_ -1
    x604 OBJ 5
    x605 c_u_x1002_ -1
    x605 OBJ 20
    x606 c_u_x1003_ -1
    x606 OBJ 20
    x607 c_u_x1004_ -1
    x607 OBJ 20
    x608 c_u_x1005_ -1
    x608 OBJ 20
    x609 c_u_x1006_ -1
    x609 OBJ 20
    x610 c_u_x1007_ -1
    x610 OBJ 20
    x611 c_u_x1008_ -1
    x611 OBJ 20
    x612 c_u_x1009_ -1
    x612 OBJ 20
    x613 c_u_x1010_ -1
    x613 OBJ 20
    x614 c_u_x1011_ -1
    x614 OBJ 20
    x615 c_u_x1012_ -1
    x615 OBJ 20
    x616 c_u_x1013_ -1
    x616 OBJ 20
    x617 c_u_x1014_ -1
    x617 OBJ 40
    x618 c_u_x1015_ -1
    x618 OBJ 40
    x619 c_u_x1016_ -1
    x619 OBJ 40
    x620 c_u_x1017_ -1
    x620 OBJ 40
    x621 c_u_x1018_ -1
    x621 OBJ 40
    x622 c_u_x1019_ -1
    x622 OBJ 40
    x623 c_u_x1020_ -1
    x623 OBJ 40
    x624 c_u_x1021_ -1
    x624 OBJ 40
    x625 c_u_x1022_ -1
    x625 OBJ 40
    x626 c_u_x1023_ -1
    x626 OBJ 40
    x627 c_u_x1024_ -1
    x627 OBJ 40
    x628 c_u_x1025_ -1
    x628 OBJ 40
    x629 c_u_x1026_ -1
    x629 OBJ 20
    x630 c_u_x1027_ -1
    x630 OBJ 20
    x631 c_u_x1028_ -1
    x631 OBJ 20
    x632 c_u_x1029_ -1
    x632 OBJ 20
    x633 c_u_x1030_ -1
    x633 OBJ 20
    x634 c_u_x1031_ -1
    x634 OBJ 20
    x635 c_u_x1032_ -1
    x635 OBJ 20
    x636 c_u_x1033_ -1
    x636 OBJ 20
    x637 c_u_x1034_ -1
    x637 OBJ 20
    x638 c_u_x1035_ -1
    x638 OBJ 20
    x639 c_u_x1036_ -1
    x639 OBJ 20
    x640 c_u_x1037_ -1
    x640 OBJ 20
    MARK0001  'MARKER'                 'INTORG'
    MARK0001  'MARKER'                 'INTEND'
RHS
    RHS1      c_u_x642_ 1
    RHS1      c_u_x643_ 1
    RHS1      c_u_x644_ 1
    RHS1      c_u_x645_ 1
    RHS1      c_e_x894_ 1000
    RHS1      c_e_x895_ 1000
    RHS1      c_e_x896_ 1000
    RHS1      c_e_x897_ 1000
    RHS1      c_e_x898_ 1000
    RHS1      c_e_x899_ 1000
    RHS1      c_e_x900_ 1000
    RHS1      c_e_x901_ 1000
    RHS1      c_e_x902_ 1000
    RHS1      c_e_x903_ 1000
    RHS1      c_e_x904_ 1000
    RHS1      c_e_x905_ 1000
    RHS1      c_e_x906_ 2000
    RHS1      c_e_x907_ 2000
    RHS1      c_e_x908_ 2000
    RHS1      c_e_x909_ 2000
    RHS1      c_e_x910_ 2000
    RHS1      c_e_x911_ 2000
    RHS1      c_e_x912_ 2000
    RHS1      c_e_x913_ 2000
    RHS1      c_e_x914_ 2000
    RHS1      c_e_x915_ 2000
    RHS1      c_e_x916_ 2000
    RHS1      c_e_x917_ 2000
    RHS1      c_e_x918_ 3000
    RHS1      c_e_x919_ 3000
    RHS1      c_e_x920_ 3000
    RHS1      c_e_x921_ 3000
    RHS1      c_e_x922_ 3000
    RHS1      c_e_x923_ 3000
    RHS1      c_e_x924_ 3000
    RHS1      c_e_x925_ 3000
    RHS1      c_e_x926_ 3000
    RHS1      c_e_x927_ 3000
    RHS1      c_e_x928_ 3000
    RHS1      c_e_x929_ 3000
    RHS1      c_e_x930_ 4000
    RHS1      c_e_x931_ 4000
    RHS1      c_e_x932_ 4000
    RHS1      c_e_x933_ 4000
    RHS1      c_e_x934_ 4000
    RHS1      c_e_x935_ 4000
    RHS1      c_e_x936_ 4000
    RHS1      c_e_x937_ 4000
    RHS1      c_e_x938_ 4000
    RHS1      c_e_x939_ 4000
    RHS1      c_e_x940_ 4000
    RHS1      c_e_x941_ 4000
    RHS1      c_u_x990_ 450
    RHS1      c_u_x991_ 450
    RHS1      c_u_x992_ 450
    RHS1      c_u_x993_ 450
    RHS1      c_u_x994_ 450
    RHS1      c_u_x995_ 450
    RHS1      c_u_x996_ 450
    RHS1      c_u_x997_ 450
    RHS1      c_u_x998_ 450
    RHS1      c_u_x999_ 450
    RHS1      c_u_x1000_ 450
    RHS1      c_u_x1001_ 450
    RHS1      c_u_x1002_ 1350
    RHS1      c_u_x1003_ 1350
    RHS1      c_u_x1004_ 1350
    RHS1      c_u_x1005_ 1350
    RHS1      c_u_x1006_ 1350
    RHS1      c_u_x1007_ 1350
    RHS1      c_u_x1008_ 1350
    RHS1      c_u_x1009_ 1350
    RHS1      c_u_x1010_ 1350
    RHS1      c_u_x1011_ 1350
    RHS1      c_u_x1012_ 1350
    RHS1      c_u_x1013_ 1350
    RHS1      c_u_x1014_ 615
    RHS1      c_u_x1015_ 615
    RHS1      c_u_x1016_ 615
    RHS1      c_u_x1017_ 615
    RHS1      c_u_x1018_ 615
    RHS1      c_u_x1019_ 615
    RHS1      c_u_x1020_ 615
    RHS1      c_u_x1021_ 615
    RHS1      c_u_x1022_ 615
    RHS1      c_u_x1023_ 615
    RHS1      c_u_x1024_ 615
    RHS1      c_u_x1025_ 615
    RHS1      c_u_x1026_ 1000
    RHS1      c_u_x1027_ 1000
    RHS1      c_u_x1028_ 1000
    RHS1      c_u_x1029_ 1000
    RHS1      c_u_x1030_ 1000
    RHS1      c_u_x1031_ 1000
    RHS1      c_u_x1032_ 1000
    RHS1      c_u_x1033_ 1000
    RHS1      c_u_x1034_ 1000
    RHS1      c_u_x1035_ 1000
    RHS1      c_u_x1036_ 1000
    RHS1      c_u_x1037_ 1000
BOUNDS
 UP BOUND1    x1 1
 UP BOUND1    x2 1
 UP BOUND1    x3 1
 UP BOUND1    x4 1
 UP BOUND1    x5 1
 UP BOUND1    x6 1
 UP BOUND1    x7 1
 UP BOUND1    x8 1
 UP BOUND1    x9 1
 UP BOUND1    x10 1
 UP BOUND1    x11 1
 UP BOUND1    x12 1
 UP BOUND1    x13 1
 UP BOUND1    x14 1
 UP BOUND1    x15 1
 UP BOUND1    x16 1
ENDATA
